@relation 'dataset_tajo_m2-weka.filters.unsupervised.attribute.MathExpression-Elog(A + 1) / log(10)-R22'

@attribute LOC numeric
@attribute NSMELLS numeric
@attribute LOC_ADDED numeric
@attribute MAX_LOC_ADDED numeric
@attribute CHURN numeric
@attribute AVG_CHURN numeric
@attribute NR numeric
@attribute NFIX numeric
@attribute FIX_RATE numeric
@attribute NAUTH numeric
@attribute AVG_CHANGE_SET numeric
@attribute MAX_CHANGE_SET numeric
@attribute AVG_ND numeric
@attribute AGE_LAST_CHANGE numeric
@attribute MIN_EXP numeric
@attribute NUM_METHODS numeric
@attribute DIT numeric
@attribute RFC numeric
@attribute FAN_IN numeric
@attribute FAN_OUT numeric
@attribute CC numeric
@attribute BUGGY {no,yes}

@data
1.929419,0.778151,2.146128,2.053078,2.184691,1.591065,0.69897,0,0,0.477121,2.582347,2.850646,1.898999,2.056905,2.103804,1.041393,0.60206,0.477121,0.30103,0.90309,1.041393,no
1.579784,0,1.819544,1.819544,1.819544,1.819544,0.30103,0,0,0.30103,1.113943,1.113943,0.954243,1.531479,2.103804,0.90309,0.477121,0.30103,0.30103,0.477121,0.90309,no
1.477121,0,1.838849,1.716003,1.913814,1.235528,0.778151,0,0,0.477121,2.495822,2.850646,1.818226,1.643453,2.103804,0.90309,0.477121,0,0,0.60206,0.90309,no
1.748188,0.477121,2.021189,1.929419,2.079181,1.394452,0.778151,0,0,0.477121,2.502427,2.850646,1.851258,2.056905,2.103804,0.954243,0.477121,0.477121,0,0.60206,0.954243,no
1.342423,0,1.653213,1.653213,1.653213,1.653213,0.30103,0,0,0.30103,1.39794,1.39794,1,1.70757,2.103804,0.69897,0.477121,0.30103,0.30103,0.60206,0.69897,no
1.60206,0,1.986772,1.662758,2.100371,1.339054,0.845098,0.30103,0.068186,0.477121,2.418848,2.850646,1.753353,1.778151,2.103804,0.954243,0.477121,0.477121,0.477121,0.60206,1,no
0.845098,0,1.342423,1.342423,1.342423,1.342423,0.30103,0,0,0.30103,2.247973,2.247973,1.623249,2.056905,2.103804,0.30103,0.60206,0,0,0.30103,0.30103,no
2.390935,0.60206,2.583199,2.232996,2.639486,1.866287,0.845098,0,0,0.477121,2.416641,2.850646,1.745621,1.30103,2.103804,1.39794,1.041393,0.60206,0.30103,0.954243,1.39794,no
1.60206,0,1.838849,1.838849,1.838849,1.838849,0.30103,0,0,0.30103,1.39794,1.39794,1,1.70757,2.103804,1,0.477121,0.477121,0.69897,0.60206,1,no
1.30103,0,1.690196,1.544068,1.748188,1.454845,0.477121,0,0,0.30103,1.970812,2.247973,1.380211,2.056905,2.103804,0.60206,0.477121,0.30103,0.30103,0.477121,0.69897,no
1.342423,0,1.653213,1.653213,1.653213,1.653213,0.30103,0,0,0.30103,1.568202,1.568202,1.079181,1.643453,2.103804,0.69897,0.477121,0.30103,0.30103,0.60206,0.69897,no
1.869232,0.477121,2.100371,1.908485,2.130334,1.537819,0.69897,0,0,0.477121,2.582347,2.850646,1.898999,2.056905,2.103804,0.90309,0.30103,1,1.20412,1,1.230449,no
1.672098,0,1.924279,1.623249,1.963788,1.283301,0.778151,0,0,0.477121,2.489114,2.850646,1.814248,1.857332,2.103804,1,0.477121,0.69897,0.477121,0.778151,1.20412,yes
1.079181,0,1.50515,1.342423,1.544068,1.255273,0.477121,0,0,0.30103,1.977724,2.247973,1.40654,1.857332,2.103804,0.477121,0.60206,0,0,0.477121,0.477121,no
1.491362,0,1.755875,1.755875,1.755875,1.755875,0.30103,0,0,0.30103,2.247973,2.247973,1.623249,2.056905,2.103804,0.845098,0.60206,0.477121,0.30103,0.845098,0.90309,no
1.255273,0.30103,1.322219,1.146128,1.447158,1.161368,0.477121,0,0,0.30103,1.984527,2.247973,1.423246,1.892095,2.103804,0.69897,0.60206,0,0,0.477121,0.69897,no
1.919078,0,2.09691,2.09691,2.09691,2.09691,0.30103,0,0,0.30103,1.897627,1.897627,1.544068,1.886491,2.103804,1.342423,0.477121,0.30103,0.30103,0.60206,1.342423,no
1.342423,0,1.255273,1.079181,1.623249,1.332438,0.477121,0.30103,0.176091,0.30103,1.963788,2.247973,1.389166,1.579784,2.103804,0.69897,0.477121,0.30103,0.30103,0.477121,0.69897,no
1.78533,0.30103,2.068186,1.897627,2.143015,1.550228,0.69897,0,0,0.477121,2.582347,2.850646,1.898999,2.056905,2.103804,1.146128,0.60206,1,0.30103,0.90309,1.230449,no
1.477121,0.477121,1.80618,1.732394,1.845098,1.261263,0.69897,0,0,0.477121,2.582347,2.850646,1.898999,2.056905,2.103804,0.778151,0.30103,0.845098,0.90309,0.954243,0.778151,no
1.39794,0,1.78533,1.662758,1.857332,1.273001,0.69897,0,0,0.477121,2.582347,2.850646,1.898999,2.056905,2.103804,0.778151,0.60206,0.60206,0.30103,0.69897,0.778151,no
1.477121,0.30103,1.832509,1.69897,1.908485,1.230449,0.778151,0.30103,0.079181,0.477121,2.494433,2.850646,1.819544,1.778151,2.103804,0.69897,0.477121,0.477121,0.30103,0.60206,0.69897,yes
1.079181,0,1.041393,1.041393,1.230449,1.230449,0.30103,0,0,0.30103,2.247973,2.247973,1.623249,2.056905,2.103804,0.477121,0.60206,0.30103,0.30103,0.60206,0.477121,no
1.041393,0,1.653213,1.414973,1.763428,1.18327,0.69897,0,0,0.477121,2.577204,2.850646,1.900367,2.056905,2.103804,0.477121,0.477121,0,0.30103,0.477121,0.477121,no
1.633468,0,1.845098,1.845098,1.845098,1.845098,0.30103,0,0,0.30103,1.447158,1.447158,1.113943,1.763428,2.103804,0.90309,0.477121,0.60206,0.477121,0.60206,0.90309,no
1.623249,0,1.939519,1.812913,2.004321,1.414973,0.69897,0,0,0.477121,2.582347,2.850646,1.898999,2.056905,2.103804,1.041393,0.60206,0.60206,0.477121,0.845098,1.041393,no
1.653213,0.30103,1.924279,1.724276,1.968483,1.380211,0.69897,0,0,0.477121,2.582347,2.850646,1.898999,2.056905,2.103804,1.041393,0.477121,0.60206,0.477121,0.778151,1.113943,no
1.60206,0,1.812913,1.799341,1.826075,1.531479,0.477121,0,0,0.30103,2.029384,2.247973,1.431364,1.643453,2.103804,0.845098,0.477121,0.845098,0.477121,0.60206,0.90309,no
1.30103,0,1.690196,1.579784,1.740363,1.161368,0.69897,0,0,0.477121,2.582347,2.850646,1.898999,2.056905,2.103804,0.69897,0.477121,0.477121,0.477121,0.60206,0.69897,no
1.491362,0,1.851258,1.778151,1.929419,1.342423,0.69897,0,0,0.477121,2.582347,2.850646,1.898999,2.056905,2.103804,0.845098,0.60206,0.477121,0.477121,0.845098,0.90309,no
1.361728,0,1.755875,1.633468,1.819544,1.236789,0.69897,0,0,0.477121,2.582347,2.850646,1.898999,2.056905,2.103804,0.69897,0.60206,0.30103,0.477121,0.69897,0.69897,no
1.278754,0,0.60206,0.60206,1.30103,1.30103,0.30103,0,0,0.30103,1.568202,1.568202,1.079181,1.643453,2.103804,0.69897,0.477121,0.477121,0.477121,0.477121,0.69897,no
1.812913,0.477121,2.093422,2,2.152288,1.559308,0.69897,0,0,0.477121,2.582347,2.850646,1.898999,2.056905,2.103804,0.778151,0.60206,0.477121,0.477121,0.845098,0.778151,no
1.462398,0,1.80618,1.579784,1.863323,1.187521,0.778151,0,0,0.477121,2.495822,2.850646,1.818226,1.643453,2.103804,0.90309,0.60206,0.477121,0.30103,0.60206,0.90309,no
1.591065,0,1.913814,1.763428,1.982271,1.30103,0.778151,0.30103,0.079181,0.477121,2.494433,2.850646,1.819544,1.778151,2.103804,0.954243,0.477121,0.69897,0.69897,0.69897,1,no
1.230449,0,1.662758,1.50515,1.716003,1.138303,0.69897,0,0,0.477121,2.582347,2.850646,1.898999,2.056905,2.103804,0.69897,0.477121,0,0.954243,0.477121,0.69897,no
1.255273,0,1.30103,1.30103,1.414973,1.414973,0.30103,0,0,0.30103,2.247973,2.247973,1.623249,2.056905,2.103804,0.60206,0.477121,0.30103,0.60206,0.60206,0.60206,no
2.502427,1.361728,2.693727,2.424882,2.793092,1.952163,0.90309,0,0,0.477121,2.580925,2.951823,1.916822,1.361728,2.103804,1.322219,0.30103,1.079181,1.255273,1.255273,1.623249,no
1.342423,0.30103,2.037426,1.863323,2.217484,1.387923,0.90309,0.30103,0.056905,0.477121,2.537643,2.951823,1.881613,1.361728,2.103804,0.69897,0.477121,0.69897,0,0.778151,0.69897,no
1.255273,0,1.69897,1.146128,1.977724,1.10551,0.954243,0.30103,0.053078,0.69897,2.472581,2.951823,1.825296,0.30103,1.041393,0,0.30103,0,0,0,0,no
2.056905,0.778151,2.509203,1.919078,2.686636,1.446226,1.278754,0.477121,0.045323,0.778151,2.304641,2.951823,1.665862,1.380211,1.255273,1.20412,0.30103,1.39794,0.477121,1.113943,1.50515,no
2.075547,0.845098,2.664642,2.285557,2.880242,1.41946,1.491362,0.845098,0.079181,0.69897,2.16711,2.951823,1.546543,1.672098,1.255273,1.322219,0.30103,1.462398,0.30103,1.079181,1.447158,no
1.78533,0.30103,1.963788,1.959041,1.968483,1.672098,0.477121,0,0,0.30103,1.848189,2.10721,1.431364,1.380211,2.103804,0.778151,0.30103,1.431364,0.30103,0.90309,1.146128,no
1.579784,0.477121,2.30963,1.690196,2.537819,1.281261,1.30103,0.477121,0.045323,0.60206,2.313192,2.951823,1.666237,2.017033,2.103804,0.778151,0.30103,0.69897,0.30103,0.845098,0.90309,no
2.037426,0.845098,2.649335,2.103804,2.867467,1.556905,1.342423,0.60206,0.056905,0.69897,2.266608,2.951823,1.628593,1.672098,1.041393,1.230449,0.30103,1.462398,0.778151,1.113943,1.361728,yes
2.017033,0.90309,2.503791,2.40654,2.696356,1.799341,0.954243,0.477121,0.09691,0.477121,2.579361,2.951823,1.89003,2.017033,2.103804,1.20412,0.30103,1.544068,0.845098,0.954243,1.255273,no
1.716003,0.69897,1.939519,1.939519,1.973128,1.50515,0.60206,0,0,0.30103,2.014226,2.10721,1.50515,1.380211,2.103804,0.845098,0.30103,1.079181,0.69897,1.30103,0.954243,no
1.50515,0,1.973128,1.716003,2.120574,1.19201,1,0,0,0.60206,2.56017,2.951823,1.872506,1.968483,2.103804,0.477121,0.30103,1.113943,0.30103,0.90309,0.69897,no
1.477121,0.30103,1.716003,1.230449,2.021189,1.146128,0.954243,0,0,0.60206,2.519171,2.951823,1.865578,1.342423,1.255273,0.477121,0.30103,1.113943,0.30103,0.954243,0.60206,no
2.029384,0.69897,2.482874,2.068186,2.661813,1.378398,1.322219,0.69897,0.079181,0.69897,2.287802,2.951823,1.649821,1.672098,1.50515,1.255273,0.30103,1.361728,0.69897,1,1.462398,no
2.294466,1.176091,2.755875,2.206826,2.941014,1.425697,1.544068,0.954243,0.093422,0.69897,2.137544,2.951823,1.537819,1.672098,1.255273,1.431364,0.30103,1.70757,0.60206,1.176091,1.716003,no
1.869232,0.60206,2.120574,1.838849,2.167317,1.480007,0.778151,0,0,0.477121,2.677242,2.951823,1.999131,1.755875,2.103804,1.146128,0.30103,1.146128,0.30103,0.90309,1.20412,no
2.103804,0.778151,2.556303,2.152288,2.737193,1.63266,1.146128,0.477121,0.060698,0.477121,2.394994,2.951823,1.737352,1.380211,2.103804,1.30103,0.30103,1.568202,0.30103,1.079181,1.491362,no
1.819544,0.778151,2.113943,1.968483,2.181844,1.417804,0.845098,0,0,0.60206,2.676849,2.951823,1.973128,2.149219,2.103804,1.176091,0.30103,0.954243,0.30103,0.69897,1.20412,no
1.973128,0.90309,2.292256,1.60206,2.414973,1.261739,1.20412,0.60206,0.079181,0.60206,2.352318,2.951823,1.71265,1.380211,1.041393,0.60206,0.30103,1.633468,0.30103,0.90309,1.414973,yes
1.986772,0.845098,2.276462,2.103804,2.38739,1.496653,0.954243,0.30103,0.053078,0.60206,2.574182,2.951823,1.88224,2.017033,2.103804,1.146128,0.30103,1.39794,0.477121,1,1.414973,no
2.1959,0.778151,2.654177,2.380211,2.840733,1.768416,1.113943,0.30103,0.033424,0.60206,2.43417,2.951823,1.772102,1.380211,2.103804,1.342423,0.30103,1.531479,0.477121,1.079181,1.579784,no
1.633468,0.477121,1.991226,1.732394,2.120574,1.434569,0.778151,0,0,0.477121,2.708591,2.951823,2.026125,1.672098,2.103804,0.30103,0.30103,0.90309,0.30103,1.20412,1.20412,no
2.064458,0.90309,2.294466,2.130334,2.365488,1.531479,0.90309,0.30103,0.056905,0.477121,2.571045,2.951823,1.912275,1.380211,2.103804,1.322219,0.30103,1.462398,0.90309,1.20412,1.462398,no
2.173186,0.69897,2.592177,2.225309,2.764176,1.498724,1.30103,0.477121,0.045323,0.778151,2.288853,2.951823,1.640283,1.380211,1.255273,1.322219,0.30103,1.50515,0.845098,1.146128,1.612784,no
1.431364,0.30103,1.851258,1.591065,1.954243,1.137037,0.90309,0.30103,0.056905,0.477121,2.645422,2.951823,1.960423,1.380211,2.103804,0.30103,0.30103,0.845098,0,0.90309,0.60206,no
2.699838,1.380211,2.879669,2.672098,2.957607,1.588272,1.39794,0.477121,0.033424,0.69897,2.177306,2.951823,1.608312,0.30103,1.041393,1.079181,0.477121,1.50515,0.30103,1.230449,1.278754,no
1.447158,0,1.90309,1.740363,2,1.318063,0.778151,0,0,0.477121,2.662569,2.951823,1.985875,1.361728,2.103804,0.69897,0.477121,0.778151,0,0.778151,0.69897,no
1.380211,0,1.819544,1.70757,1.913814,1.235528,0.778151,0,0,0.477121,2.671913,2.951823,2.004321,1.857332,2.103804,0.778151,0.30103,0.60206,0,0.69897,0.778151,no
2.808211,1.724276,2.925828,2.868644,2.960946,2.185174,0.845098,0.477121,0.123852,0.60206,1.454845,2.10721,1.108227,0.30103,1.041393,1.462398,0.477121,2.033424,0.30103,1.30103,2.071882,no
2.877371,1.792392,2.962843,2.947924,2.977266,2.376577,0.69897,0.30103,0.09691,0.60206,1.588272,2.10721,1.20412,1.113943,1.041393,1.491362,0.60206,2.012837,0.477121,1.278754,2.117271,no
2.456366,1.278754,2.599883,2.592177,2.600973,2.30103,0.477121,0,0,0.30103,0.929419,0.954243,0.778151,0.30103,1.041393,1.30103,0.477121,1.792392,0,1.477121,1.755875,no
2.11059,1.491362,2.230449,2.230449,2.230449,2.230449,0.30103,0,0,0.30103,0.90309,0.90309,0.778151,0.845098,1.041393,0.845098,0.30103,1.230449,0.477121,1.041393,1.681241,no
2.025306,0.69897,1.447158,1.278754,1.643453,0.982271,0.778151,0,0,0.477121,2.688598,2.951823,2.017868,1.380211,2.103804,1.278754,0.30103,1.380211,0,0.778151,1.322219,no
2.123852,1.255273,2.287802,2.267172,2.305351,1.709694,0.69897,0.30103,0.09691,0.477121,0.954243,1.041393,0.79588,0.30103,1.041393,1,0.60206,1.176091,0,0.69897,1.342423,no
1.342423,0.30103,1.70757,1.447158,1.770852,0.968016,0.90309,0.477121,0.11059,0.60206,2.646404,2.951823,1.953566,2.149219,2.103804,0.477121,0.30103,0.477121,0,0,0.69897,no
2.103804,0.90309,2.283301,2.217484,2.305351,1.472903,0.90309,0.30103,0.056905,0.477121,2.675127,2.951823,1.982904,2.149219,2.103804,1.230449,0.30103,1.176091,0.30103,0.69897,1.556303,no
1.672098,0.30103,1.934498,1.799341,1.959041,1.141763,0.90309,0.30103,0.056905,0.477121,2.675127,2.951823,1.982904,2.149219,2.103804,1,0.30103,0.778151,0.30103,0.477121,1.079181,no
2.495544,1.380211,2.814913,2.488551,2.928396,1.426023,1.531479,1.146128,0.143015,0.845098,2.012078,2.951823,1.458789,1.30103,1.041393,1.579784,0.477121,1.623249,1.041393,0.90309,1.672098,yes
1.991226,0.30103,2.161368,2.130334,2.187521,1.59384,0.69897,0,0,0.477121,2.299398,2.786751,1.643453,1.826075,1.50515,1.255273,0.477121,0.778151,0.30103,0.954243,1.39794,yes
2.064458,0,2.225309,2.214844,2.25042,1.778151,0.60206,0,0,0.30103,2.405978,2.786751,1.745621,2.017033,2.103804,1.230449,0.477121,1.278754,0.477121,0.90309,1.361728,yes
2.037426,0,2.267172,2.240549,2.292256,1.525045,0.845098,0,0,0.477121,2.138303,2.786751,1.514149,1.462398,1.50515,1.342423,0.477121,0.69897,0.69897,0.845098,1.60206,yes
2.056905,0,2.380211,2.10721,2.498311,1.43409,1.113943,0.30103,0.033424,0.60206,2.471409,2.951823,1.797614,1.690196,1.255273,1.322219,0.477121,1.20412,0.477121,0.90309,1.462398,yes
2.056905,0.30103,2.907949,2.662758,3.159868,1.804685,1.380211,0.60206,0.053078,0.69897,2.24197,2.951823,1.584218,1.826075,1.50515,1.518514,0.30103,0.954243,1,1.079181,1.69897,yes
2.155336,0.30103,2.517196,1.623249,2.669317,1.261501,1.447158,0.778151,0.075547,0.778151,2.190332,2.951823,1.55582,1.462398,1.255273,1.447158,0.30103,1.447158,0.90309,1.278754,1.732394,yes
2.418301,0,2.550228,2.447158,2.603144,1.830396,0.845098,0,0,0.477121,2.149742,2.786751,1.509606,1.690196,1.50515,1.414973,0.477121,1.255273,0.60206,1.079181,1.944483,yes
2.40824,0.477121,2.525045,2.434569,2.559907,1.787673,0.845098,0,0,0.477121,2.149742,2.786751,1.509606,1.690196,1.50515,1.380211,0.477121,1.255273,0.69897,1.041393,1.924279,yes
1.982271,0.30103,2.155336,2.143015,2.184691,1.713238,0.60206,0,0,0.30103,2.405978,2.786751,1.745621,2.017033,2.103804,1.146128,0.477121,0.954243,0.60206,0.90309,1.342423,yes
2.409933,0.30103,2.523746,2.431364,2.558709,1.786538,0.845098,0,0,0.477121,2.149742,2.786751,1.509606,1.690196,1.50515,1.380211,0.477121,1.342423,0.60206,1.176091,1.924279,yes
2.409933,0.30103,2.523746,2.439333,2.561101,1.788875,0.845098,0,0,0.477121,2.149742,2.786751,1.509606,1.690196,1.50515,1.39794,0.477121,1.30103,0.69897,1.113943,1.929419,yes
2.419956,0,2.539076,2.448706,2.580925,1.742647,0.90309,0,0,0.477121,2.124309,2.786751,1.499275,1.672098,1.50515,1.414973,0.477121,1.255273,0.778151,1.079181,1.944483,yes
1.851258,0.30103,2.269513,1.924279,2.421604,1.150756,1.322219,0.69897,0.079181,0.69897,2.276117,2.951823,1.632963,1.690196,1.041393,1.230449,0.477121,0,0.60206,0.60206,1.230449,yes
1.591065,0,1.908485,1.908485,1.908485,1.908485,0.30103,0,0,0.30103,1.929419,1.929419,1.431364,1.672098,2.103804,0.90309,0.477121,0.778151,0.30103,0.954243,0.90309,no
1.869232,0.60206,2.227887,2.227887,2.227887,2.227887,0.30103,0,0,0.30103,1.929419,1.929419,1.431364,1.672098,2.103804,1.146128,0.69897,0.90309,0.477121,0.845098,1.255273,no
3.015779,1.255273,3.165541,3.165541,3.165541,3.165541,0.30103,0,0,0.30103,1.929419,1.929419,1.431364,1.672098,2.103804,1.431364,1,2.053078,0.477121,1.322219,2.369216,no
2.469822,1.113943,2.662758,2.662758,2.662758,2.662758,0.30103,0,0,0.30103,1.929419,1.929419,1.431364,1.672098,2.103804,1.342423,0.30103,1.60206,0.60206,0.60206,2.041393,no
1.724276,0,1.913814,1.913814,1.913814,1.913814,0.30103,0,0,0.30103,1.929419,1.929419,1.431364,1.672098,2.103804,1.041393,0.477121,0.90309,0.30103,0.69897,1.146128,no
1.799341,0.778151,1.963788,1.963788,1.963788,1.963788,0.30103,0,0,0.30103,1.929419,1.929419,1.431364,1.672098,2.103804,0.90309,0.30103,1.255273,0.477121,0.954243,1.113943,no
2.049218,0.60206,2.25042,2.167317,2.303196,1.612784,0.778151,0,0,0.477121,2.215902,2.786751,1.565848,1.690196,1.50515,1.30103,0.477121,1.20412,0.60206,0.954243,1.518514,yes
1.770852,0.30103,1.991226,1.991226,2.033424,1.736397,0.477121,0,0,0.30103,2.130334,2.143015,1.618048,1.812913,2.103804,1.041393,0.30103,1.176091,0.30103,0.60206,1.176091,no
1.278754,0,1.748188,1.50515,1.826075,1.018284,0.90309,0,0,0.60206,2.650589,2.951823,1.959709,2.017033,2.103804,0.30103,0.30103,0.60206,0,0.60206,0.477121,no
1.322219,0,1.80618,1.447158,1.908485,1.094471,0.90309,0,0,0.60206,2.650589,2.951823,1.959709,2.017033,2.103804,0.477121,0.30103,0.69897,0.30103,0.778151,0.60206,no
1.623249,0.60206,1.851258,1.851258,1.851258,1.851258,0.30103,0,0,0.30103,2.10721,2.10721,1.544068,2.017033,2.103804,0.845098,0.30103,1.079181,0.477121,1.041393,0.954243,no
1.568202,0,1.851258,1.812913,1.892095,1.306425,0.69897,0,0,0.30103,2.332943,2.786751,1.696793,1.968483,2.103804,0.477121,0.30103,1.230449,0.30103,0.90309,0.845098,no
1.39794,0,1.94939,1.716003,2.113943,1.185542,1,0.30103,0.045323,0.60206,2.575834,2.951823,1.894538,1.968483,2.103804,0.477121,0.30103,1.079181,0.477121,0.90309,0.477121,yes
1.414973,0,1.69897,1.69897,1.69897,1.69897,0.30103,0,0,0.30103,2.10721,2.10721,1.544068,2.017033,2.103804,0.60206,0.30103,0.954243,0.60206,0.69897,0.778151,no
1.176091,0,1.724276,1.447158,1.812913,1.067071,0.845098,0,0,0.60206,2.706146,2.951823,2.005738,2.017033,2.103804,0.30103,0.30103,0.477121,0,0.69897,0.30103,no
1.230449,0,1.799341,1.447158,1.919078,1.104146,0.90309,0,0,0.60206,2.652797,2.951823,1.961089,1.968483,2.103804,0.477121,0.30103,0.60206,0.30103,0.845098,0.477121,no
1.778151,0.30103,2.403121,2.269513,2.619093,1.924279,0.778151,0,0,0.477121,2.688064,2.951823,2.023664,1.934498,2.103804,1.041393,0.30103,1.113943,0.477121,0.477121,1.176091,no
1.799341,0.30103,2.436163,1.90309,2.642465,1.359835,1.322219,0.90309,0.130334,0.60206,2.246868,2.951823,1.612254,1.812913,2.103804,1,0.30103,1.079181,0.30103,0.778151,1.146128,no
1.792392,0.30103,2.390935,2.167317,2.600973,1.570309,1.079181,0.30103,0.037426,0.60206,2.483002,2.951823,1.817764,1.934498,2.103804,1.079181,0.30103,1.176091,0.477121,0.60206,1.20412,no
1.770852,0.30103,2.380211,2.252853,2.592177,1.819544,0.845098,0,0,0.477121,2.617,2.951823,1.943643,1.934498,2.103804,1.041393,0.30103,1.176091,0.60206,0.60206,1.176091,no
1.041393,0.30103,1.568202,1.278754,1.623249,0.963788,0.778151,0.30103,0.079181,0.477121,2.477989,2.850646,1.860937,1.477121,2.103804,0.30103,0.30103,0,0,0,0.30103,yes
1,0,1.544068,1.278754,1.60206,0.817565,0.90309,0.30103,0.056905,0.477121,2.675127,2.951823,1.982904,2.149219,2.103804,0,0.30103,0,0,0,0,no
0.954243,0.30103,1.544068,1.278754,1.60206,0.817565,0.90309,0.30103,0.056905,0.477121,2.675127,2.951823,1.982904,2.149219,2.103804,0,0.30103,0,0,0,0,no
1.838849,0.845098,2.053078,1.982271,2.079181,1.487845,0.69897,0.30103,0.09691,0.60206,2.523746,2.850646,1.845098,1.845098,1.50515,1.041393,0.30103,0.90309,0.30103,0.477121,1.322219,no
2.981366,1.724276,3.246745,3.211654,3.25479,2.178257,1.113943,0.60206,0.09691,0.60206,2.436035,2.951823,1.770852,1.763428,1.50515,1.939519,0.30103,1.908485,0.778151,1.079181,2.350248,no
1.431364,0.60206,1.845098,1.544068,1.90309,1.036629,0.954243,0.69897,0.176091,0.477121,2.504471,2.951823,1.847449,1.544068,2.103804,0.477121,0.30103,0.90309,0.778151,0.60206,0.69897,no
1.812913,0.845098,2.100371,1.518514,2.198657,1.059563,1.20412,0.69897,0.103804,0.60206,2.360972,2.951823,1.691965,2.149219,1.176091,1.041393,0.30103,1.380211,0.477121,0.778151,1.20412,no
1.477121,0.60206,1.819544,1.672098,1.826075,1.361728,0.60206,0,0,0.477121,2.86845,2.951823,2.170262,2.149219,2.103804,0.30103,0.30103,1.146128,0,0,0.845098,no
1.716003,0.60206,1.968483,1.60206,2.075547,1.251881,0.90309,0,0,0.60206,2.547418,2.951823,1.893706,1.477121,1.50515,0.90309,0.30103,1.146128,0.69897,0.30103,1.176091,no
1.643453,0.477121,1.897627,1.643453,1.924279,1.056142,0.954243,0.30103,0.053078,0.60206,2.621436,2.951823,1.930694,1.826075,1.50515,1.041393,0.30103,1.113943,0.90309,0.60206,1.113943,no
1.146128,0.60206,1.662758,1.278754,1.716003,0.824126,1,0.477121,0.08636,0.477121,2.575834,2.951823,1.894538,2.149219,2.103804,0.30103,0.30103,0.30103,0,0.30103,0.30103,no
1.462398,0.477121,1.763428,1.763428,1.763428,1.763428,0.30103,0.30103,0.30103,0.30103,0.90309,0.90309,0.69897,1.579784,2.103804,0.30103,0.30103,0.60206,0,0,0.778151,no
1.20412,0.30103,2.161368,1.908485,2.39794,1.628389,0.845098,0,0,0.477121,2.611011,2.951823,1.950997,1.934498,2.103804,0.477121,0.30103,0.477121,0,0.477121,0.477121,no
2.113943,1.113943,2.389166,1.672098,2.460898,1.230449,1.278754,0.69897,0.08636,0.60206,2.33389,2.951823,1.709015,1.60206,2.103804,1.30103,0.30103,1.322219,1.447158,0.90309,1.579784,no
1.924279,0.69897,2.152288,1.968483,2.212188,1.278754,1,0.477121,0.08636,0.477121,2.452813,2.951823,1.836071,1.477121,2.103804,1.113943,0.30103,1.322219,0.30103,0.845098,1.30103,no
1.361728,0.30103,1.690196,1.462398,1.70757,1.130334,0.69897,0.30103,0.09691,0.477121,2.747412,2.951823,2.056905,2.149219,2.103804,0.477121,0.30103,1.041393,0.30103,0.60206,0.60206,no
0.954243,0.30103,1.491362,1.278754,1.50515,0.942008,0.69897,0.30103,0.09691,0.477121,2.747412,2.951823,2.056905,2.149219,2.103804,0.30103,0.60206,0.30103,0,0.477121,0.30103,no
2.146128,0.60206,2.423246,2.184691,2.547775,1.558709,1.041393,0.477121,0.079181,0.477121,2.467312,2.951823,1.820858,1.380211,2.103804,0.778151,0.477121,1.041393,0.477121,1,0.90309,no
2.759668,1.278754,3.131298,2.574031,3.300161,1.696007,1.623249,0.845098,0.060698,0.778151,2.009451,2.951823,1.445293,1.361728,1.255273,1.146128,0.90309,2.037426,0.477121,1.462398,1.929419,yes
1.78533,0,2.033424,1.778151,2.089905,1.328991,0.845098,0.477121,0.123852,0.477121,2.594028,2.951823,1.936162,1.991226,2.103804,1.079181,0.30103,1.079181,0.30103,0.60206,1.113943,yes
1.431364,0.60206,1.732394,1.544068,1.763428,1.093422,0.778151,0,0,0.477121,2.75694,2.951823,2.055378,2.149219,2.103804,0.30103,0.30103,0.954243,0,0,0.845098,no
2.547775,0.845098,2.918555,2.409933,3.072985,1.758079,1.342423,0.477121,0.041393,0.60206,2.217115,2.951823,1.616265,0.30103,1.255273,1.39794,0.30103,1.681241,0.845098,1.431364,1.724276,no
1.963788,0.60206,2.143015,2.120574,2.170262,1.872156,0.477121,0,0,0.30103,1.638489,1.869232,1.322219,1.477121,2.103804,0.60206,0.30103,1.414973,0.30103,1.041393,1.30103,no
1.857332,0.477121,2.305351,1.556303,2.477121,1.223755,1.30103,0.60206,0.064458,0.60206,2.324941,2.951823,1.673574,1.672098,2.103804,0.90309,0.69897,1.113943,0,1.20412,1.146128,no
2.247973,0.778151,2.563481,2.437751,2.645422,1.654177,1.041393,0.69897,0.146128,0.477121,2.507991,2.951823,1.827369,1.968483,2.103804,1,0.30103,1.342423,0.30103,1.079181,1.812913,no
2.361728,0.69897,2.569374,2.448706,2.650308,1.876968,0.845098,0.477121,0.123852,0.30103,1.409426,1.732394,1.028164,1.462398,2.103804,1.477121,0.30103,1.623249,0.30103,1.342423,1.778151,yes
2.281033,0.69897,2.378398,2.378398,2.378398,2.378398,0.30103,0,0,0.30103,1.113943,1.113943,0.954243,1.531479,2.103804,1.041393,0.477121,1,0.30103,1.20412,1.278754,no
2.243038,1.113943,2.700704,2.167317,2.888741,1.363424,1.556303,0.90309,0.079181,0.60206,2.111061,2.951823,1.487704,1.531479,2.103804,1.113943,0.477121,1.447158,0.60206,1.230449,1.832509,yes
2.305351,0.60206,2.535294,2.264818,2.628389,1.466423,1.20412,0.69897,0.103804,0.477121,2.399102,2.951823,1.744058,1.672098,2.103804,1.20412,0.60206,1.39794,0.477121,1.20412,1.477121,no
1.944483,0.69897,2.089905,2.079181,2.100371,1.802774,0.477121,0,0,0.30103,1.740363,1.929419,1.267172,1.672098,2.103804,1.041393,0.477121,1.447158,0.30103,1.342423,1.361728,yes
1.832509,0.477121,2.357935,1.832509,2.546543,1.146128,1.447158,0.845098,0.08636,0.60206,2.215347,2.951823,1.582291,1.672098,2.103804,1.146128,0.477121,0.954243,0.60206,0.954243,1.230449,no
1.897627,0.778151,2.378398,1.880814,2.555094,1.125156,1.477121,0.845098,0.082785,0.60206,2.167317,2.951823,1.539327,1.531479,2.103804,1.30103,0.30103,0.90309,1.20412,1.113943,1.39794,no
1.079181,0.30103,1.662758,1.623249,1.770852,1.100371,0.778151,0.30103,0.079181,0.477121,2.69688,2.951823,2.020361,1.968483,2.103804,0.477121,0.30103,0,0.30103,0.778151,0.477121,no
2.409933,1.041393,2.727541,2.416641,2.854913,1.50637,1.380211,0.845098,0.100371,0.477121,2.268905,2.951823,1.640879,1.531479,2.103804,1.278754,0.477121,1.568202,0.477121,1.322219,1.69897,no
1.995635,0.69897,2.468347,1.778151,2.651278,1.175222,1.518514,1,0.10721,0.69897,2.151033,2.951823,1.53428,1.672098,1.041393,1.255273,0.477121,1.230449,0.954243,1.113943,1.342423,yes
2.08636,0.69897,2.385606,2.068186,2.509203,1.324899,1.230449,0.60206,0.075547,0.477121,2.389503,2.951823,1.735918,1.672098,2.103804,1.230449,0.477121,1.20412,0.60206,1.20412,1.414973,no
1.78533,0.477121,2.487138,1.845098,2.717671,1.356217,1.39794,0.69897,0.068186,0.60206,2.229067,2.951823,1.587374,1.70757,2.103804,0.845098,0.60206,1.113943,0.69897,1.176091,1.041393,no
1.886491,0.477121,2.075547,2.056905,2.09691,1.626648,0.60206,0.30103,0.123852,0.30103,1.646698,1.929419,1.230449,1.672098,2.103804,1,0.60206,1,0.69897,1.176091,1.176091,yes
1.851258,0.845098,2.235528,1.908485,2.376577,1.353147,1.079181,0.477121,0.071882,0.477121,2.498683,2.951823,1.826075,1.579784,2.103804,1,0.60206,1.041393,0.69897,1.176091,1.041393,no
1.414973,0,1.69897,1.69897,1.69897,1.69897,0.30103,0,0,0.30103,1.447158,1.447158,1.113943,1.763428,2.103804,0.69897,0.69897,0.778151,0.69897,0.69897,0.845098,no
1.875061,0.60206,2.262451,1.90309,2.41162,1.231979,1.230449,0.845098,0.139879,0.477121,2.368398,2.951823,1.709185,1.462398,2.103804,1.113943,0.477121,1.113943,0.69897,1.146128,1.146128,no
1.732394,0.477121,2.08636,1.681241,2.206826,1.094471,1.176091,0.69897,0.11059,0.477121,2.421489,2.951823,1.755341,1.672098,2.103804,1,0.477121,0.69897,0.60206,1,1.176091,no
1.770852,0,1.968483,1.959041,1.977724,1.681241,0.477121,0,0,0.30103,1.752048,1.929419,1.30103,1.672098,2.103804,0.90309,0.60206,1.113943,0.477121,1.20412,1,yes
1.491362,0,1.740363,1.732394,1.748188,1.454845,0.477121,0,0,0.30103,1.311754,1.447158,1.041393,1.732394,2.103804,0.60206,0.69897,0.69897,0.60206,0.69897,0.845098,no
1.69897,0.60206,2.021189,1.954243,2.10721,1.636789,0.60206,0.30103,0.123852,0.30103,1.646698,1.929419,1.230449,1.672098,2.103804,1.041393,0.477121,0.778151,0.778151,1,1.079181,no
1.30103,0,1.643453,1.643453,1.643453,1.643453,0.30103,0,0,0.30103,1.447158,1.447158,1.113943,1.763428,2.103804,0.60206,0.69897,0.69897,0.60206,0.60206,0.60206,no
1.39794,0,2.012837,1.556303,2.184691,1.135769,1.113943,0.477121,0.068186,0.477121,2.49125,2.951823,1.82007,1.672098,2.103804,0.954243,0.477121,0.477121,0.477121,1,0.954243,no
1.778151,0.30103,2.184691,1.80618,2.33646,1.354108,1.041393,0.30103,0.041393,0.477121,2.527114,2.951823,1.844477,1.672098,2.103804,0.954243,0.60206,1.113943,0,1.113943,0.954243,no
1.146128,0.477121,2.09691,1.819544,2.330414,1.441381,0.954243,0,0,0.477121,2.61133,2.951823,1.929419,1.672098,2.103804,0.477121,0.69897,0.477121,0,0.778151,0.477121,no
1.176091,0.30103,2.133539,1.812913,2.371068,1.431364,1,0,0,0.477121,2.561101,2.951823,1.881442,1.672098,2.103804,0.477121,0.69897,0.477121,0,0.778151,0.477121,no
1.770852,0,2.1959,1.792392,2.354108,1.371068,1.041393,0.30103,0.041393,0.477121,2.527114,2.951823,1.844477,1.672098,2.103804,0.90309,0.60206,1.113943,0.30103,1.113943,0.90309,no
1.672098,0,2.082785,1.748188,2.220108,1.243038,1.041393,0.477121,0.079181,0.477121,2.544564,2.951823,1.856124,1.672098,2.103804,0.954243,0.60206,0.69897,0,1.041393,0.954243,no
1.30103,0,1.838849,1.414973,1.968483,1.0086,1.041393,0.30103,0.041393,0.477121,2.553155,2.951823,1.866878,1.70757,2.103804,0.477121,0.69897,0.30103,0,0.90309,0.60206,no
1.653213,0.60206,1.880814,1.875061,1.886491,1.591065,0.477121,0,0,0.30103,1.667453,1.732394,1.311754,1.70757,2.103804,0.845098,0.69897,0.60206,0,1,1,no
1.462398,0.30103,1.869232,1.579784,1.977724,1.221936,0.845098,0,0,0.60206,2.624973,2.951823,1.941163,1.70757,2.103804,0.477121,0.60206,0.90309,0.30103,0.954243,0.60206,no
1.633468,0.30103,2.071882,1.70757,2.220108,1.20412,1.079181,0.477121,0.071882,0.477121,2.507613,2.951823,1.828402,1.672098,2.103804,0.845098,0.60206,0.778151,0,1.041393,0.845098,no
1.623249,0.30103,2.045323,1.69897,2.187521,1.212188,1.041393,0.477121,0.079181,0.477121,2.539703,2.951823,1.855519,1.672098,2.103804,0.845098,0.60206,0.778151,0,1.041393,0.845098,no
1.623249,0.30103,2.049218,1.69897,2.190332,1.214844,1.041393,0.477121,0.079181,0.477121,2.544564,2.951823,1.856124,1.672098,2.103804,0.845098,0.60206,0.778151,0,1.041393,0.845098,no
1.633468,0.30103,2.075547,1.690196,2.227887,1.211388,1.079181,0.477121,0.071882,0.477121,2.507613,2.951823,1.828402,1.672098,2.103804,0.845098,0.60206,0.778151,0,1.041393,0.845098,no
1.623249,0.30103,2.049218,1.69897,2.190332,1.214844,1.041393,0.477121,0.079181,0.477121,2.544564,2.951823,1.856124,1.672098,2.103804,0.845098,0.60206,0.778151,0,1.041393,0.845098,no
1.633468,0.30103,2.045323,1.724276,2.181844,1.249932,1,0.30103,0.045323,0.477121,2.579017,2.951823,1.893318,1.672098,2.103804,0.845098,0.60206,0.778151,0,1.041393,0.845098,no
1.623249,0.30103,2.045323,1.69897,2.184691,1.209515,1.041393,0.477121,0.079181,0.477121,2.544564,2.951823,1.856124,1.672098,2.103804,0.845098,0.60206,0.778151,0,1.041393,0.845098,no
1.633468,0.30103,2.064458,1.70757,2.209515,1.232996,1.041393,0.477121,0.079181,0.477121,2.544564,2.951823,1.856124,1.672098,2.103804,0.845098,0.60206,0.778151,0,1.041393,0.845098,no
1.672098,0.30103,2.079181,1.740363,2.220108,1.243038,1.041393,0.477121,0.079181,0.477121,2.544564,2.951823,1.856124,1.672098,2.103804,0.845098,0.60206,0.778151,0,1.041393,0.954243,no
1.342423,0,1.792392,1.477121,1.892095,1.140822,0.845098,0,0,0.477121,2.719886,2.951823,2.021189,1.70757,2.103804,0.477121,0.60206,0.778151,0,0.845098,0.477121,no
1.623249,0.30103,2.064458,1.69897,2.212188,1.235528,1.041393,0.477121,0.079181,0.477121,2.544564,2.951823,1.856124,1.672098,2.103804,0.845098,0.60206,0.69897,0,1.041393,0.845098,no
1.612784,0.30103,2.049218,1.681241,2.1959,1.181272,1.079181,0.477121,0.071882,0.477121,2.506383,2.951823,1.823148,1.672098,2.103804,0.845098,0.60206,0.69897,0,1.041393,0.845098,no
1.623249,0.30103,2.056905,1.70757,2.201397,1.186391,1.079181,0.30103,0.037426,0.60206,2.489058,2.951823,1.811709,1.672098,0.30103,0.845098,0.60206,0.69897,0,1.041393,0.845098,no
1.623249,0.30103,2.064458,1.69897,2.212188,1.235528,1.041393,0.477121,0.079181,0.477121,2.544564,2.951823,1.856124,1.672098,2.103804,0.845098,0.60206,0.69897,0,1.041393,0.845098,no
1.20412,0,1.740363,1.380211,1.857332,1.108227,0.845098,0,0,0.60206,2.624973,2.951823,1.941163,1.70757,2.103804,0.477121,0.60206,0.477121,0,0.845098,0.477121,no
1.20412,0,1.748188,1.322219,1.863323,1.113943,0.845098,0.30103,0.068186,0.60206,2.625312,2.951823,1.942851,1.70757,2.103804,0.477121,0.60206,0.60206,0,0.778151,0.477121,no
1.380211,0.30103,1.991226,1.579784,2.161368,1.230449,1,0.30103,0.045323,0.477121,2.566638,2.951823,1.880814,1.70757,2.103804,0.69897,0.477121,0.30103,0.845098,0.954243,0.69897,no
1.30103,0,1.78533,1.414973,1.897627,1.146128,0.845098,0.30103,0.068186,0.60206,2.625312,2.951823,1.942851,1.70757,2.103804,0.477121,0.60206,0.69897,0,0.778151,0.477121,yes
1.544068,0.30103,1.80618,1.80618,1.80618,1.80618,0.30103,0,0,0.30103,1.146128,1.146128,0.90309,1.643453,2.103804,0.60206,0.60206,0.778151,0,0.954243,0.845098,no
1.342423,0.30103,1.690196,1.690196,1.690196,1.690196,0.30103,0,0,0.30103,0.69897,0.69897,0.69897,1.531479,2.103804,0.477121,0.60206,0.778151,0,0.90309,0.60206,no
1.342423,0.30103,1.690196,1.690196,1.690196,1.690196,0.30103,0,0,0.30103,0.778151,0.778151,0.69897,1.643453,2.103804,0.477121,0.60206,0.778151,0,0.90309,0.60206,no
1.556303,0.30103,1.812913,1.812913,1.812913,1.812913,0.30103,0,0,0.30103,1.146128,1.146128,0.90309,1.643453,2.103804,0.60206,0.60206,0.778151,0,0.954243,0.845098,no
1.80618,0.477121,2.021189,2.021189,2.021189,2.021189,0.30103,0,0,0.30103,1.732394,1.732394,1.20412,1.70757,2.103804,0.60206,0.60206,1.041393,0,1.041393,1.079181,no
1.544068,0.30103,1.80618,1.80618,1.80618,1.80618,0.30103,0,0,0.30103,1.146128,1.146128,0.90309,1.643453,2.103804,0.60206,0.60206,0.778151,0,0.954243,0.845098,no
1.491362,0.30103,1.799341,1.748188,1.832509,1.367915,0.60206,0.30103,0.123852,0.477121,1.380211,1.732394,1.028164,1.70757,1.50515,0.477121,0.60206,0.845098,0,0.90309,0.69897,yes
1.342423,0.30103,1.690196,1.690196,1.690196,1.690196,0.30103,0,0,0.30103,0.778151,0.778151,0.69897,1.643453,2.103804,0.477121,0.60206,0.778151,0,0.90309,0.60206,no
1.792392,0.69897,1.995635,1.977724,2.029384,1.560265,0.60206,0,0,0.30103,2.014226,2.10721,1.50515,1.380211,2.103804,0.845098,0.30103,1.079181,0.60206,1.414973,0.954243,no
1.414973,0.30103,1.991226,1.69897,2.158362,1.276002,0.954243,0.30103,0.053078,0.60206,2.61831,2.951823,1.934498,1.968483,2.103804,0.477121,0.30103,1.079181,0.30103,0.90309,0.477121,no
1.39794,0,1.986772,1.724276,2.155336,1.328176,0.90309,0,0,0.60206,2.652797,2.951823,1.961089,1.968483,2.103804,0.477121,0.30103,1.079181,0.30103,0.845098,0.477121,no
3.097257,2.064458,3.485863,3.20085,3.655042,2.752625,0.954243,0.477121,0.09691,0.60206,1.566791,2.049218,1.10551,1.544068,1.041393,1.748188,0.60206,2.383815,0.30103,2.004321,2.539076,no
2.996074,1.176091,3.156549,2.954725,3.219323,1.863323,1.380211,0.845098,0.100371,0.477121,1.55364,2.247973,1.140822,1.30103,1.50515,1.819544,0.477121,2.487138,0.477121,2.120574,2.451786,yes
1.255273,0.30103,1.60206,1.60206,1.612784,1.322219,0.477121,0,0,0.477121,1.792392,2.049218,1.20412,1.544068,1.50515,0.30103,0.477121,0.69897,0.30103,0.845098,0.477121,no
1.623249,0,1.826075,1.826075,1.826075,1.826075,0.30103,0,0,0.30103,1.079181,1.079181,0.845098,1.995635,1.50515,0.60206,0.477121,1.255273,0.477121,1.041393,1.041393,no
2.264818,0.954243,2.44248,2.318063,2.49693,1.725667,0.845098,0.477121,0.123852,0.30103,1.753353,2.143015,1.325721,1.643453,2.103804,1.30103,0.30103,1.491362,0.30103,1.380211,1.591065,no
2.298853,1.041393,2.557507,2.303196,2.673021,1.833402,0.90309,0.30103,0.056905,0.30103,1.770852,2.143015,1.342423,1.531479,2.103804,1.342423,0.30103,1.414973,0.30103,1.39794,1.591065,no
2.143015,0.30103,2.276462,2.222716,2.285557,1.986772,0.477121,0,0,0.30103,1.562293,1.591065,1.352183,1.732394,2.103804,1.230449,0.30103,1.531479,0.30103,1.255273,1.414973,no
2.193125,0.845098,2.4133,2.307496,2.489958,2.015653,0.60206,0.30103,0.123852,0.30103,1.812913,2.143015,1.348889,1.60206,2.103804,1.278754,0.477121,1.39794,0.30103,1.380211,1.322219,no
2.08636,0.778151,2.217484,2.217484,2.217484,2.217484,0.30103,0,0,0.30103,1.278754,1.278754,0.90309,1.531479,2.103804,1.278754,0.477121,1.39794,0.30103,0.954243,1.447158,no
2.178977,0.30103,2.305351,2.298853,2.311754,1.838849,0.60206,0.30103,0.123852,0.30103,1.957464,2.143015,1.431364,1.544068,2.103804,1.39794,0.30103,1.579784,0.30103,1,1.568202,no
2.045323,0.90309,2.382017,2.260071,2.506505,1.563006,1,0.30103,0.045323,0.30103,2.174467,2.786751,1.589838,1.544068,2.103804,1.342423,0.30103,1.342423,0.477121,1.079181,1.462398,no
1.633468,0.30103,1.977724,1.908485,2.071882,1.38739,0.778151,0,0,0.30103,2.249932,2.786751,1.612784,1.544068,2.103804,0.954243,0.30103,1.041393,0.30103,0.60206,1.079181,no
2.668386,1.079181,3.742175,2.61595,4.019407,2.036589,1.991226,1.544068,0.130334,0.69897,1.829947,2.951823,1.32838,1.380211,1.041393,0.954243,0.60206,1.851258,0.477121,1.556303,1.732394,yes
2.264818,0.30103,2.475671,2.322219,2.540329,1.410102,1.176091,0.477121,0.056905,0.60206,2.36575,2.951823,1.706376,1.544068,2.103804,1.568202,0.30103,1.643453,0.778151,1.041393,1.672098,no
1.579784,0.30103,1.819544,1.819544,1.819544,1.819544,0.30103,0,0,0.30103,1.380211,1.380211,1.079181,1.60206,2.103804,0.954243,0.30103,0.845098,0.30103,0.69897,1.041393,no
2.255273,1,2.40654,2.342423,2.432969,2.133539,0.477121,0,0,0.30103,1.913814,2.143015,1.439333,1.672098,2.103804,1.361728,0.30103,1.60206,0.60206,0.954243,1.591065,no
1.763428,0,1.968483,1.968483,1.968483,1.968483,0.30103,0,0,0.30103,1.39794,1.39794,1.113943,1.672098,2.103804,0.90309,0.477121,1,0.30103,0.845098,1.20412,no
1.591065,0.60206,1.819544,1.819544,1.819544,1.819544,0.30103,0,0,0.30103,2.247973,2.247973,1.623249,2.056905,2.103804,0.845098,0.30103,0.845098,0.30103,0.845098,0.90309,no
2.170262,0.60206,2.307496,2.264818,2.318063,1.627366,0.778151,0.477121,0.146128,0.30103,1.775246,2.143015,1.346353,1.740363,2.103804,1.414973,0.477121,1.255273,0.69897,1.041393,1.544068,no
1.681241,0.30103,2.170262,1.568202,2.338456,1.115943,1.278754,0.477121,0.045323,0.69897,2.294841,2.951823,1.639088,1.477121,1.255273,1,0.477121,0.778151,0.30103,0.90309,1.041393,no
2.082785,0.69897,2.451786,1.716003,2.605305,1.266702,1.380211,0.60206,0.053078,0.69897,2.225077,2.951823,1.59151,1.763428,1.50515,1.30103,0.477121,1.176091,0.30103,1.041393,1.431364,no
1.633468,0.69897,1.913814,1.857332,1.968483,1.287802,0.778151,0,0,0.30103,2.067443,2.247973,1.502427,1.763428,2.103804,0.954243,0.477121,0.69897,0.30103,0.69897,1,no
1.799341,0.477121,2.167317,1.672098,2.290035,1.143951,1.20412,0.60206,0.079181,0.477121,2.388811,2.951823,1.730782,1.763428,2.103804,1.041393,0.477121,0.90309,0.30103,0.90309,1.146128,no
1.322219,0.30103,1.851258,1.50515,1.977724,1.058426,1,0.30103,0.045323,0.477121,2.558972,2.951823,1.877602,1.763428,2.103804,0.60206,0.60206,0.90309,0,0.69897,0.60206,no
2.173186,0.69897,2.531479,1.812913,2.683947,1.26031,1.462398,0.778151,0.071882,0.69897,2.174118,2.951823,1.546296,1.477121,1.255273,1.30103,0.60206,1.361728,0.30103,1.041393,1.556303,no
1.959041,0.69897,2.187521,2.060698,2.267172,1.248709,1.079181,0.30103,0.037426,0.60206,2.495419,2.951823,1.828402,1.763428,1.041393,1,0.69897,1.380211,0.30103,0.954243,1.230449,no
1.322219,0.30103,1.851258,1.50515,1.982271,1.062958,1,0.30103,0.045323,0.477121,2.558972,2.951823,1.877602,1.763428,2.103804,0.60206,0.60206,0.90309,0,0.69897,0.60206,no
1.414973,0,1.792392,1.556303,1.863323,1.113943,0.845098,0.477121,0.123852,0.477121,2.703575,2.951823,2.010724,2.149219,2.103804,0.778151,0.30103,0,0,0.30103,0.778151,no
1.39794,0,1.78533,1.78533,1.78533,1.78533,0.30103,0,0,0.30103,1.380211,1.380211,1.079181,1.60206,2.103804,0.69897,0.30103,0,0,0.60206,0.69897,no
2.326336,0.845098,2.465383,2.462398,2.468347,2.168792,0.477121,0,0,0.30103,1.880814,2.10721,1.454845,1.380211,2.103804,0.845098,0.30103,1.763428,0.60206,1.30103,1.462398,yes
1.643453,0.477121,1.897627,1.763428,1.924279,1.628389,0.477121,0,0,0.30103,1.389166,1.39794,1.09691,1.60206,2.103804,1,0.30103,0.845098,0.60206,0.477121,1,no
1.60206,0,1.934498,1.799341,2.029384,1.732394,0.477121,0,0,0.30103,1.389166,1.39794,1.09691,1.60206,2.103804,0.477121,0.60206,1.176091,0.30103,0.845098,0.778151,no
2.056905,0.69897,2.482874,2.0086,2.655138,1.263636,1.431364,0.69897,0.060698,0.69897,2.200248,2.951823,1.567732,1.477121,1.255273,1.230449,0.60206,1.342423,0.60206,1,1.447158,no
1.612784,0.60206,2.082785,1.897627,2.238046,1.221153,1.079181,0,0,0.60206,2.411923,2.951823,1.753813,1.477121,1.255273,0.845098,0.60206,1.079181,0.30103,0.778151,0.90309,no
1.892095,0.477121,2.276462,1.60206,2.41162,1.14145,1.322219,0.30103,0.021189,0.69897,2.286344,2.951823,1.633973,1.477121,1.255273,1.255273,0.30103,0.778151,1.176091,0.90309,1.322219,no
1.278754,0.477121,1.929419,1.30103,2.10721,0.97635,1.20412,0.477121,0.053078,0.69897,2.365862,2.951823,1.709863,1.477121,1.255273,0.69897,0.60206,0.60206,0,0.477121,0.69897,no
1.944483,0.778151,2.340444,1.653213,2.487138,1.173478,1.361728,0.477121,0.037426,0.69897,2.249541,2.951823,1.605951,1.477121,1.255273,1,0.60206,1.230449,0.477121,0.90309,1.278754,no
1.079181,0.30103,1.579784,1.556303,1.60206,1.311754,0.477121,0,0,0.30103,1.959041,2.143015,1.39794,1.763428,2.103804,0.69897,0.477121,0,0.60206,0.60206,0.69897,no
2.187521,0.60206,2.562293,1.69897,2.717671,1.292478,1.462398,0.954243,0.11059,0.69897,2.178459,2.951823,1.559308,1.763428,1.041393,1.322219,0.60206,1.491362,0.69897,1.113943,1.568202,no
1.681241,0.60206,2.127105,1.579784,2.281033,1.135769,1.20412,0.30103,0.029384,0.69897,2.394101,2.951823,1.728597,1.477121,1.255273,0.90309,0.60206,1.230449,0.477121,0.845098,0.954243,no
1.851258,0.60206,2.278754,1.690196,2.447158,1.155032,1.342423,0.30103,0.021189,0.69897,2.249027,2.951823,1.605628,1.477121,1.255273,0.90309,0.60206,1.322219,0.477121,0.90309,1.176091,no
0.845098,0,1.50515,1.278754,1.556303,0.834421,0.845098,0,0,0.60206,2.686341,2.951823,1.986772,1.763428,1.041393,0.30103,0.69897,0,0,0.30103,0.30103,no
2.127105,0.778151,2.457882,2.045323,2.596597,1.258398,1.380211,0.477121,0.037426,0.69897,2.208361,2.951823,1.59151,1.477121,1.255273,1.30103,0.60206,1.30103,0.60206,1,1.447158,no
1.944483,0.60206,2.120574,2.093422,2.143015,1.456366,0.778151,0.477121,0.146128,0.30103,1.745075,2.143015,1.264818,1.643453,2.103804,1.230449,0.60206,1.20412,0.69897,1.041393,1.255273,no
1.568202,0.30103,2.041393,1.462398,2.178977,0.992111,1.255273,0.477121,0.049218,0.69897,2.31683,2.951823,1.660011,1.477121,1.255273,0.90309,0.477121,0.845098,0.954243,0.845098,1,no
1.322219,0.30103,1.875061,1.531479,2.0086,1.045323,1.041393,0.477121,0.079181,0.477121,2.512951,2.951823,1.830589,1.763428,2.103804,0.60206,0.60206,0.90309,0.30103,0.69897,0.60206,no
2.225309,0.90309,3.306211,2.739572,3.582177,2.02983,1.568202,1.079181,0.117271,0.69897,2.063521,2.951823,1.482731,1.60206,1.041393,0.60206,0.69897,1.30103,0.30103,1.255273,0.778151,no
2.778874,1.176091,3.105851,2.752048,3.235528,2.009111,1.255273,0.69897,0.093422,0.30103,1.771734,2.247973,1.31492,1.477121,2.103804,1.380211,0.30103,1.770852,1.146128,1.255273,1.778151,no
2.947924,1.414973,3.50637,2.959041,3.717754,1.815843,1.913814,1.380211,0.10721,0.778151,1.864985,2.951823,1.338058,1.380211,1.255273,1.633468,0.477121,2.340444,0.60206,2.021189,2.311754,yes
2.225309,0.477121,2.354108,2.354108,2.354108,2.354108,0.30103,0,0,0.30103,1.278754,1.278754,0.90309,1.531479,2.103804,1.230449,0.477121,1.633468,0.30103,1.431364,1.556303,no
1.897627,0,2.330414,1.90309,2.501059,1.246252,1.30103,0.778151,0.100371,0.60206,2.340444,2.951823,1.678882,1.544068,2.103804,0.477121,0.60206,1.361728,0,1.113943,1.113943,no
1.973128,0.69897,2.127105,2.10721,2.146128,1.848189,0.477121,0,0,0.30103,1.944483,2.143015,1.431364,1.643453,2.103804,1.146128,0.30103,1.30103,0.30103,1.278754,1.380211,no
1.568202,0,2.0086,1.826075,2.146128,1.264346,0.954243,0.477121,0.09691,0.477121,2.520811,2.951823,1.835691,1.544068,2.103804,0.845098,0.477121,0.60206,0.30103,0.60206,0.845098,no
2.201397,0.60206,2.494155,2.276462,2.622214,1.30103,1.361728,0.954243,0.133539,0.60206,2.277403,2.951823,1.633468,1.544068,1.176091,0.69897,0.60206,1.342423,0,1.113943,1.462398,no
2.041393,0.60206,2.354108,2.117271,2.487138,1.303844,1.230449,0.69897,0.09691,0.69897,2.392257,2.951823,1.746245,1.342423,1.041393,0.778151,0.477121,1.477121,0,1.278754,1.20412,no
1.60206,0.60206,2.155336,1.716003,2.334454,1.159567,1.230449,0.845098,0.139879,0.477121,2.388723,2.951823,1.718086,1.544068,2.103804,0.778151,0.477121,0.954243,0,0.954243,0.90309,no
2.170262,0.69897,2.695482,2.20412,2.887054,1.386142,1.531479,0.90309,0.082785,0.60206,2.145662,2.951823,1.547775,1.342423,1.176091,1,0.69897,1.50515,0.30103,1.20412,1.414973,no
1.94939,0,2.371068,2.060698,2.535294,1.257679,1.322219,0.845098,0.113943,0.60206,2.302331,2.951823,1.649335,1.544068,2.103804,0.778151,0.69897,1.30103,0.30103,0.954243,1.278754,no
2.25042,0,2.40824,2.403121,2.4133,1.939519,0.60206,0,0,0.30103,1.763428,2.049218,1.176091,1.544068,2.103804,0.954243,0.60206,1.556303,0.30103,1.255273,1.431364,yes
2.139879,0,2.609594,2.146128,2.790285,1.596597,1.230449,0.845098,0.139879,0.60206,2.375901,2.951823,1.716504,1.544068,1.176091,0.90309,0.60206,1.491362,0.477121,1.230449,1.342423,no
1.763428,0,2.064458,2.025306,2.082785,1.612784,0.60206,0,0,0.30103,1.748188,2.049218,1.176091,1.544068,2.103804,0.477121,0.69897,1.20412,0.30103,0.90309,1.079181,no
2.173186,0.477121,2.342423,2.332438,2.352183,1.878924,0.60206,0,0,0.30103,1.763428,2.049218,1.176091,1.544068,2.103804,0.90309,0.60206,1.518514,0.30103,1.278754,1.342423,yes
1.732394,0.30103,2.064458,2.0086,2.093422,1.623249,0.60206,0,0,0.30103,1.710371,2.049218,1.135769,1.544068,2.103804,0.477121,0.69897,1.20412,0.30103,0.90309,1.079181,no
1.278754,0,1.792392,1.462398,1.897627,1.031408,0.954243,0.477121,0.09691,0.60206,2.58064,2.951823,1.885078,2.149219,2.103804,0.477121,0.477121,0.60206,0,0.69897,0.69897,no
1.939519,0.954243,2.385606,2.045323,2.559907,1.241795,1.361728,0.845098,0.103804,0.477121,2.29627,2.951823,1.666143,1.380211,2.103804,0.778151,0.60206,1.531479,0.30103,1.361728,1,no
1.740363,0.477121,2.060698,1.869232,2.152288,1.325105,0.90309,0.30103,0.056905,0.477121,2.666789,2.951823,1.963126,2.149219,2.103804,0.477121,0.30103,0.90309,0,0.845098,1.079181,no
1.477121,0,1.832509,1.732394,1.90309,1.225309,0.778151,0,0,0.477121,2.668386,2.951823,1.974051,1.544068,2.103804,0.60206,0.60206,0.60206,0.30103,0.845098,0.778151,no
1.716003,0,2.021189,1.908485,2.11059,1.230449,0.954243,0.477121,0.09691,0.477121,2.511215,2.951823,1.849726,1.544068,2.103804,0.778151,0.69897,1.113943,0,0.90309,0.954243,no
2.330414,0,2.528917,2.525045,2.532754,2.05816,0.60206,0,0,0.30103,1.763428,2.049218,1.176091,1.544068,2.103804,0.69897,0.60206,1.39794,0,1.230449,1.643453,no
2.136721,0.30103,2.617,2.190332,2.807535,1.54083,1.30103,0.778151,0.100371,0.69897,2.309076,2.951823,1.656769,1.544068,1.176091,0.69897,0.60206,1.447158,0.30103,1.20412,1.361728,no
1.875061,0.30103,2.372912,1.90309,2.555094,1.256477,1.342423,0.90309,0.123852,0.69897,2.294356,2.951823,1.639188,1.544068,1.176091,0.69897,0.60206,1.255273,0,1.079181,1.079181,no
1.939519,0.30103,2.123852,2.113943,2.133539,1.662758,0.60206,0,0,0.30103,1.763428,2.049218,1.176091,1.544068,2.103804,0.69897,0.60206,1.30103,0,1.113943,1.079181,yes
2.045323,0.778151,2.537819,2.068186,2.731589,1.225826,1.544068,1.113943,0.130334,0.60206,2.135419,2.951823,1.541454,1.380211,2.103804,0.845098,0.60206,1.672098,0.30103,1.30103,1.113943,no
1.278754,0,1.724276,1.342423,1.792392,0.987219,0.90309,0.30103,0.056905,0.477121,2.611415,2.951823,1.910037,2.149219,2.103804,0.477121,0.30103,0.30103,0.477121,0.477121,0.477121,no
1.431364,0,1.944483,1.39794,2.08636,0.984077,1.176091,0.60206,0.082785,0.60206,2.403618,2.951823,1.735279,1.544068,1.50515,0.845098,0.30103,0.30103,1.342423,0.69897,0.845098,no
1.278754,0.60206,1.612784,1.612784,1.612784,1.612784,0.30103,0,0,0.30103,2.143015,2.143015,1.623249,1.812913,2.103804,0.30103,0.477121,0.30103,0,0.69897,0.30103,no
1.556303,0,2.281033,1.763428,2.49693,1.242293,1.30103,0.778151,0.100371,0.60206,2.32319,2.951823,1.666237,1.544068,1.176091,0.60206,0.60206,1,0.477121,1,0.69897,no
2.318063,0.30103,2.537819,2.536558,2.539076,2.239299,0.477121,0,0,0.30103,1.835691,2.049218,1.217484,1.544068,2.103804,0.778151,0.60206,1.431364,0.30103,1.230449,1.612784,no
1.633468,0,2.176091,1.869232,2.359835,1.209515,1.20412,0.845098,0.146128,0.60206,2.409933,2.951823,1.741388,1.544068,2.103804,0.477121,0.60206,1.113943,0.477121,1.041393,0.845098,no
2.025306,0.60206,2.487138,1.897627,2.671173,1.169086,1.544068,1,0.100371,0.69897,2.141262,2.951823,1.556303,1.342423,1.041393,0.845098,0.477121,1.544068,0.477121,1.230449,1.255273,yes
1.812913,0,2.365488,1.982271,2.561101,1.349278,1.255273,0.69897,0.093422,0.477121,2.362953,2.951823,1.694342,1.544068,2.103804,0.60206,0.69897,1.041393,0.477121,0.845098,1.20412,no
1.431364,0,2.278754,1.799341,2.515874,1.306211,1.255273,0.69897,0.093422,0.60206,2.305093,2.951823,1.646306,1.544068,1.176091,0.69897,0.60206,0,0.69897,0.90309,0.69897,no
1.78533,0.30103,2.40824,1.857332,2.606381,1.173186,1.477121,1,0.117271,0.60206,2.19293,2.951823,1.583652,1.380211,2.103804,0.778151,0.60206,1.447158,0,1.079181,0.954243,no
1.30103,0.30103,1.913814,1.477121,2.082785,1.156246,1,0.477121,0.08636,0.60206,2.562959,2.951823,1.871806,1.544068,1.041393,0.60206,0.60206,0.30103,0,0.778151,0.60206,no
1.491362,0,1.924279,1.78533,2.041393,1.117603,1,0.60206,0.123852,0.477121,2.476643,2.951823,1.805433,1.544068,2.103804,0.845098,0.477121,0.60206,1.041393,0.778151,0.845098,no
1.531479,0.30103,2.064458,1.770852,2.227887,1.211388,1.079181,0.60206,0.103804,0.477121,2.497179,2.951823,1.809896,1.544068,2.103804,0.60206,0.60206,0.69897,0,0.778151,0.90309,no
2.810904,1.70757,3.098298,2.488551,3.230449,1.805705,1.447158,0.90309,0.100371,0.60206,2.131522,2.951823,1.535294,1.342423,1.50515,1.531479,0.30103,1.963788,0.30103,1.851258,2.113943,no
2.680336,1.278754,3.117603,2.283301,3.294907,1.598243,1.716003,1.079181,0.08636,0.69897,2.018326,2.951823,1.454082,1.477121,1.255273,1.414973,0.477121,1.94939,1.176091,1.50515,1.94939,no
1.812913,0.60206,2,2,2,2,0.30103,0,0,0.30103,2.143015,2.143015,1.623249,1.812913,2.103804,1.079181,0.30103,0.778151,1.342423,0.30103,1.20412,no
1.897627,0.477121,2.146128,2,2.225309,1.340047,0.954243,0.30103,0.053078,0.477121,2.624416,2.951823,1.942653,1.812913,2.103804,0.69897,0.30103,1.176091,1.146128,0.90309,1.278754,no
1.863323,0.60206,2.20412,2.053078,2.283301,1.516271,0.845098,0,0,0.477121,2.71391,2.951823,2.016323,2.149219,2.103804,0.778151,0.30103,1.30103,0.30103,0.90309,1.255273,no
1.462398,0.477121,1.851258,1.851258,1.851258,1.851258,0.30103,0,0,0.30103,0.845098,0.845098,0.60206,2.033424,2.103804,0.477121,0.30103,1,0.477121,0.778151,0.778151,no
2.264818,0.778151,2.499687,2.193125,2.568202,1.673297,0.954243,0,0,0.30103,1.81124,2.143015,1.337459,1.544068,2.103804,0.90309,0.477121,1.690196,0.477121,1.278754,1.732394,yes
2.564666,1.146128,2.772322,2.576341,2.85309,1.858537,1.041393,0.69897,0.146128,0.30103,1.701568,2.143015,1.31597,1.60206,2.103804,1.342423,0.477121,2.004321,0.477121,1.518514,1.919078,yes
1.880814,0.69897,2.133539,2.064458,2.193125,1.364363,0.90309,0.477121,0.11059,0.30103,1.980322,2.247973,1.449324,1.643453,2.103804,1.176091,0.30103,1.20412,1.255273,0.90309,1.278754,no
2.247973,0.60206,2.463893,2.227887,2.540329,1.645913,0.954243,0.477121,0.09691,0.30103,1.717088,2.247973,1.210853,1.643453,2.103804,1.30103,0.30103,1.431364,0.845098,1.079181,1.690196,no
2.450249,1.041393,2.635484,2.495544,2.725095,1.732394,1.041393,0.477121,0.079181,0.477121,2.512017,2.951823,1.825426,1.544068,2.103804,0.845098,0.477121,1.633468,0.30103,1.041393,1.770852,no
1.20412,0.30103,1.60206,1.60206,1.60206,1.60206,0.30103,0,0,0.30103,1.278754,1.278754,0.90309,1.531479,2.103804,0.60206,0.30103,0.60206,0.477121,0,0.60206,no
2.037426,0.69897,2.257679,2.235528,2.260071,1.787673,0.60206,0,0,0.30103,2.007193,2.143015,1.491362,1.544068,2.103804,1.477121,0.477121,1.176091,0.30103,0.90309,1.556303,no
2.445604,0.60206,2.736397,2.278754,2.880814,1.448861,1.462398,0.778151,0.071882,0.60206,2.217379,2.951823,1.623249,1.342423,2.103804,1.414973,0.30103,1.681241,0.30103,1.079181,1.880814,no
1,0.30103,1.531479,1.278754,1.579784,0.924279,0.778151,0.30103,0.079181,0.477121,2.75557,2.951823,2.050766,2.149219,2.103804,0.30103,0.30103,0.60206,0,0.30103,0.30103,no
1.568202,0.477121,2.100371,1.462398,2.281033,1.135769,1.20412,0.778151,0.123852,0.477121,2.377798,2.951823,1.719911,1.778151,2.103804,0.60206,0.30103,0.954243,0.90309,0.477121,1.079181,no
1.886491,0.69897,2.190332,2.120574,2.20412,1.515874,0.778151,0,0,0.477121,2.755722,2.951823,2.048442,2.149219,2.103804,0.954243,0.30103,1.278754,0.30103,0.477121,1.30103,no
2.526339,0.90309,2.932981,2.453318,3.11694,1.744293,1.39794,0.954243,0.123852,0.60206,2.210078,2.951823,1.583539,1.380211,1.041393,0.90309,0.30103,1.681241,0.778151,1.146128,1.851258,no
2.164353,0.60206,2.290035,2.290035,2.290035,2.290035,0.30103,0,0,0.30103,1.342423,1.342423,0.845098,0.30103,1.255273,1.462398,0.30103,1.079181,0.30103,1.255273,1.70757,no
2.478566,1.113943,2.603144,2.603144,2.603144,2.603144,0.30103,0,0,0.30103,1.342423,1.342423,0.845098,0.30103,1.255273,1.763428,0.30103,1.322219,0.30103,0.954243,2.079181,no
2.984977,0.90309,3.078094,3.078094,3.078094,3.078094,0.30103,0,0,0.30103,1.342423,1.342423,0.845098,0.30103,1.255273,2.252853,0.30103,1.491362,0.477121,1.041393,2.394452,no
2.274158,0.69897,2.369216,2.369216,2.369216,2.369216,0.30103,0,0,0.30103,1.342423,1.342423,0.845098,0.30103,1.255273,1.176091,0.30103,0.778151,0.477121,0.778151,1.875061,no
1.69897,0.30103,1.892095,1.892095,1.892095,1.892095,0.30103,0,0,0.30103,1.342423,1.342423,0.845098,0.30103,1.255273,0.778151,0.477121,0.90309,0.30103,0.845098,1.079181,no
2.683947,0.778151,2.820201,2.820201,2.820201,2.820201,0.30103,0,0,0.30103,1.342423,1.342423,0.845098,0.30103,1.255273,2.017033,0.30103,1.278754,0.477121,0.778151,2.30103,no
2.064458,0.30103,2.178977,2.178977,2.178977,2.178977,0.30103,0,0,0.30103,1.342423,1.342423,0.845098,0.30103,1.255273,0.954243,0.477121,1.30103,0.30103,1.230449,1.30103,no
2.954725,1,3.053078,3.053078,3.053078,3.053078,0.30103,0,0,0.30103,1.342423,1.342423,0.845098,0.30103,1.255273,2.287802,0.30103,1.414973,0.60206,1,2.564666,no
2.041393,0.30103,2.206826,2.206826,2.206826,2.206826,0.30103,0,0,0.30103,1.342423,1.342423,0.845098,0.30103,1.255273,1.39794,0.30103,1.146128,0.477121,0.778151,1.50515,no
2.305351,0.60206,2.462398,2.462398,2.462398,2.462398,0.30103,0,0,0.30103,1.342423,1.342423,0.845098,0.30103,1.255273,1.662758,0.30103,0.778151,0.477121,0.69897,1.929419,no
1.934498,0.90309,2.238046,2.103804,2.346353,1.577836,0.845098,0,0,0.477121,2.679128,2.951823,1.9785,2.149219,2.103804,1.176091,0.30103,1.278754,0.30103,0.30103,1.447158,no
1.69897,0.60206,2.675778,2.633468,2.937518,2.33696,0.69897,0.30103,0.09691,0.477121,1.858838,2.117271,1.473487,1.857332,1.50515,0.90309,0.30103,0.69897,0.30103,1.041393,0.90309,no
1.690196,0,1.982271,1.857332,2.056905,1.372912,0.778151,0.30103,0.079181,0.477121,2.672652,2.951823,1.991226,1.880814,2.103804,0.954243,0.477121,0,0,0.778151,0.954243,no
1.20412,0.30103,1.662758,1.556303,1.732394,1.271144,0.60206,0,0,0.477121,2.86845,2.951823,2.170262,2.149219,2.103804,0.30103,0.477121,0,0,0.60206,0.30103,no
1.361728,0,1.755875,1.643453,1.832509,1.249198,0.69897,0,0,0.477121,2.768453,2.951823,2.083682,1.934498,2.103804,0.477121,0.60206,0.30103,0,0.778151,0.477121,no
1.113943,0,1.322219,1.041393,1.633468,1.176091,0.60206,0,0,0.477121,2.86845,2.951823,2.170262,2.149219,2.103804,0.477121,0.60206,0,0,0.477121,0.477121,yes
1.146128,0,1.30103,1.230449,1.431364,0.985426,0.60206,0,0,0.477121,2.86845,2.951823,2.170262,2.149219,2.103804,0.477121,0.477121,0,0.30103,0.60206,0.477121,no
1.230449,0,1.39794,1.176091,1.662758,1.20412,0.60206,0,0,0.477121,2.86845,2.951823,2.170262,2.149219,2.103804,0.477121,0.477121,0,0,0.477121,0.477121,no
1.568202,0,1.880814,1.70757,1.929419,1.25042,0.778151,0,0,0.30103,2.012837,2.143015,1.528917,1.544068,2.103804,0.845098,0.477121,0.60206,0,0.60206,0.845098,no
1.146128,0,1.342423,1.113943,1.672098,1.09691,0.69897,0,0,0.477121,2.768453,2.951823,2.083682,1.934498,2.103804,0.477121,0.60206,0.30103,0,0.60206,0.477121,no
1.30103,0,1.740363,1.633468,1.826075,1.152288,0.778151,0,0,0.477121,2.688064,2.951823,2.023664,1.934498,2.103804,0.60206,0.60206,0.30103,0,0.60206,0.60206,no
1.20412,0,1.690196,1.568202,1.770852,1.190332,0.69897,0,0,0.477121,2.768453,2.951823,2.083682,1.934498,2.103804,0.477121,0.60206,0,0,0.60206,0.477121,no
1.146128,0,1.30103,1.113943,1.633468,1.060698,0.69897,0,0,0.477121,2.768453,2.951823,2.083682,1.934498,2.103804,0.477121,0.477121,0,0.30103,0.60206,0.477121,no
1.041393,0.477121,1.724276,1.544068,1.875061,1.063333,0.90309,0,0,0.477121,2.575846,2.951823,1.933031,1.342423,2.103804,0.30103,0.69897,0,0,0.477121,0.30103,no
1.146128,0,1.792392,1.342423,1.934498,1.0187,1,0.30103,0.045323,0.477121,2.595011,2.951823,1.925982,1.934498,2.103804,0.477121,0.60206,0.30103,0,0.60206,0.477121,no
1.39794,0,1.755875,1.672098,1.812913,1.348889,0.60206,0,0,0.477121,2.86845,2.951823,2.170262,2.149219,2.103804,0.69897,0.60206,0,0,0.60206,0.69897,no
1.176091,0,1.30103,1.230449,1.431364,0.985426,0.60206,0,0,0.477121,2.86845,2.951823,2.170262,2.149219,2.103804,0.477121,0.477121,0,0.30103,0.60206,0.477121,no
1.176091,0,1.792392,1.342423,1.939519,1.023664,1,0.30103,0.045323,0.60206,2.572488,2.951823,1.909074,1.934498,2.103804,0.477121,0.60206,0,0,0.60206,0.477121,no
1.146128,0,1.672098,1.531479,1.763428,1.093422,0.778151,0,0,0.477121,2.688064,2.951823,2.023664,1.934498,2.103804,0.477121,0.60206,0.30103,0,0.60206,0.477121,no
1.146128,0,1.278754,1.20412,1.414973,0.969882,0.60206,0,0,0.477121,2.86845,2.951823,2.170262,2.149219,2.103804,0.477121,0.477121,0,0,0.60206,0.477121,no
1.176091,0,1.672098,1.531479,1.763428,1.093422,0.778151,0,0,0.477121,2.688064,2.951823,2.023664,1.934498,2.103804,0.477121,0.60206,0.477121,0,0.60206,0.477121,no
1.518514,0,1.851258,1.690196,1.913814,1.235528,0.778151,0,0,0.477121,2.688064,2.951823,2.023664,1.934498,2.103804,0.69897,0.477121,0,0,0.778151,0.69897,no
1.633468,0,1.954243,1.819544,2.041393,1.282622,0.845098,0,0,0.69897,2.598976,2.951823,1.928549,0.30103,1.255273,0.845098,0.60206,0.60206,0,0.69897,0.954243,no
1.278754,0,1.755875,1.60206,1.857332,1.273001,0.69897,0,0,0.477121,2.768453,2.951823,2.083682,1.934498,2.103804,0.477121,0.477121,0,0.30103,0.60206,0.477121,no
1.146128,0,1.176091,1.079181,1.491362,1.041393,0.60206,0,0,0.477121,2.86845,2.951823,2.170262,2.149219,2.103804,0.477121,0.60206,0.30103,0,0.60206,0.477121,no
2.569374,1.230449,3.017451,2.5302,3.202488,1.705693,1.518514,0.778151,0.064458,0.778151,2.104248,2.951823,1.530712,1.380211,1.041393,1.041393,0.477121,1.934498,0.30103,1.60206,1.633468,yes
2.564666,1.146128,2.989005,2.670246,3.169968,1.762303,1.431364,0.778151,0.075547,0.60206,2.151707,2.951823,1.573104,1.380211,1.50515,1.39794,0.30103,1.568202,0.845098,1.431364,1.544068,yes
1.939519,0,2.127105,2.10721,2.146128,1.459392,0.778151,0.477121,0.146128,0.477121,1.748188,2.117271,1.313867,1.414973,1.255273,1.322219,0.30103,0.69897,0.30103,0.60206,1.380211,no
2.322219,1.146128,2.513218,2.456366,2.577492,1.510813,1.113943,0.60206,0.09691,0.60206,1.788875,2.143015,1.348889,1.414973,1.255273,1.176091,0.477121,1.755875,0.477121,1.361728,1.556303,no
1.30103,0,1.643453,1.643453,1.643453,1.643453,0.30103,0,0,0.30103,2.117271,2.117271,1.612784,1.934498,2.103804,0.477121,0.477121,0,0.477121,0.60206,0.477121,no
2.155336,0.69897,2.318063,2.238046,2.348305,1.365488,1.041393,0.477121,0.079181,0.477121,1.795185,2.117271,1.365488,1.414973,1.255273,1.146128,0.477121,1.732394,0.477121,1.30103,1.322219,no
2.553883,1.322219,3.106871,2.912753,3.323046,2.095901,1.255273,0.69897,0.093422,0.477121,1.78154,2.143015,1.358316,1.361728,1.255273,1.176091,0.778151,1.778151,0.60206,1.50515,1.414973,yes
2.212188,1.113943,2.320146,2.320146,2.320146,2.320146,0.30103,0,0,0.30103,1.612784,1.612784,1.176091,1.414973,1.255273,1.146128,0.477121,1.579784,0.477121,1.50515,1.39794,no
2.049218,0.69897,2.225309,2.184691,2.269513,1.674402,0.69897,0.30103,0.09691,0.477121,1.858838,2.117271,1.473487,1.857332,1.50515,0.90309,0.477121,1.556303,0.477121,1.041393,1.176091,no
2.577492,1.39794,2.814248,2.649335,2.904174,1.796713,1.146128,0.477121,0.060698,0.30103,1.80618,2.143015,1.381656,1.361728,2.103804,1.230449,0.477121,1.90309,0.954243,1.763428,1.681241,yes
2.620136,1.278754,2.814248,2.687529,2.887617,1.641771,1.278754,0.60206,0.068186,0.69897,2.268086,2.951823,1.682235,0.30103,1.255273,1.633468,0.30103,1.857332,0.90309,1.518514,1.799341,yes
2.426511,1.278754,2.579784,2.511883,2.613842,1.546172,1.113943,0.30103,0.033424,0.69897,2.361407,2.951823,1.753353,0.30103,1.255273,1.255273,0.30103,1.612784,1.079181,1.380211,1.431364,no
2.698101,1.255273,3.011993,2.662758,3.151676,1.697752,1.477121,1,0.117271,0.69897,2.106259,2.951823,1.546666,1.342423,1.255273,1.230449,0.30103,2.149219,0.30103,1.50515,1.959041,no
2.759668,1.591065,3.234517,2.877947,3.426674,1.830909,1.612784,1.176091,0.130334,0.69897,2.007961,2.951823,1.46879,1.342423,1.255273,1.579784,0.30103,1.863323,1.176091,1.612784,1.69897,yes
1.880814,0.30103,2.082785,2.082785,2.082785,2.082785,0.30103,0,0,0.30103,2.117271,2.117271,1.612784,1.934498,2.103804,1.30103,0.30103,0,0,1,1.30103,no
1.380211,0,1.681241,1.681241,1.681241,1.681241,0.30103,0,0,0.30103,2.117271,2.117271,1.612784,1.934498,2.103804,0.69897,0.477121,0,0,0.477121,0.69897,no
2.604226,1.380211,2.812913,2.596597,2.906335,1.911158,1.041393,0.778151,0.176091,0.60206,1.636488,2.117271,1.243038,1.30103,1.255273,1.230449,0.60206,1.968483,0.60206,1.278754,1.681241,no
2.389166,0.30103,2.612784,2.290035,2.682145,1.842422,0.90309,0.60206,0.155336,0.60206,1.723127,2.117271,1.304059,1.30103,1.255273,1.763428,0.30103,1.230449,0.954243,0.60206,1.792392,no
2.281033,1.20412,2.755112,2.390935,2.95376,1.706632,1.278754,0.778151,0.10721,0.60206,2.17269,2.951823,1.571476,1.857332,1.50515,0.90309,0.477121,1.799341,0.477121,1.39794,1.447158,no
2.39794,1.20412,2.546543,2.528917,2.550228,1.778151,0.845098,0.477121,0.123852,0.60206,1.653213,2.117271,1.247237,1.414973,1.255273,1.278754,0.30103,1.892095,0.30103,1.60206,1.568202,no
2.247973,1,2.374748,2.371068,2.382017,1.908485,0.60206,0.30103,0.123852,0.30103,1.994185,2.143015,1.486714,1.812913,2.103804,1,0.477121,1.447158,0.954243,1.041393,1.322219,no
2.161368,1.041393,2.313867,2.214844,2.354108,1.585461,0.845098,0.477121,0.123852,0.477121,1.722881,2.117271,1.297323,1.361728,1.255273,0.845098,0.60206,1.792392,0.30103,1.342423,1.146128,yes
2.683947,1.39794,3.002166,2.627366,3.145818,1.755265,1.414973,0.69897,0.064458,0.60206,2.140508,2.951823,1.563006,1.477121,0.30103,1.380211,0.477121,1.986772,0.30103,1.80618,1.69897,no
2.460898,1,2.825426,2.596597,2.992554,1.605089,1.414973,0.778151,0.079181,0.69897,2.11059,2.951823,1.534026,1.380211,1.255273,0.778151,0.477121,1.278754,0.477121,1.079181,0.90309,yes
2.08636,0.69897,2.281033,2.232996,2.338456,1.50515,0.90309,0.477121,0.11059,0.477121,1.665487,2.117271,1.255273,1.414973,1.255273,0.69897,0.477121,1.255273,0.69897,1.041393,0.845098,yes
1.447158,0,1.770852,1.681241,1.819544,1.355452,0.60206,0,0,0.30103,2.400831,2.786751,1.75074,1.934498,2.103804,0.60206,0.477121,0,0.477121,0.69897,0.60206,no
2.639486,1.690196,2.85248,2.593286,2.943989,1.525304,1.447158,0.845098,0.08636,0.69897,2.102777,2.951823,1.536685,0.30103,1.255273,0.954243,0.477121,1.623249,0.778151,1.255273,1.342423,no
2.482874,1.342423,2.663701,2.650308,2.703291,2.227887,0.60206,0,0,0.30103,1.936162,2.117271,1.522835,1.477121,2.103804,1,0.477121,2.041393,0.477121,1.556303,1.579784,yes
2.071882,0.90309,2.332438,2.320146,2.359835,1.668386,0.778151,0.30103,0.079181,0.477121,1.746634,2.117271,1.372912,1.477121,1.50515,0.90309,0.477121,1.477121,0.30103,1.30103,1.176091,no
1.568202,0.60206,1.863323,1.799341,1.908485,1.322219,0.69897,0,0,0.477121,2.755303,2.951823,2.080987,2.149219,2.103804,0.477121,0.30103,0.90309,0.30103,0.30103,0.845098,no
1.278754,0.30103,1.623249,1.623249,1.623249,1.623249,0.30103,0,0,0.30103,2.117271,2.117271,1.612784,1.934498,2.103804,0.60206,0.30103,0.954243,0.60206,0.778151,0.60206,no
1.380211,0.30103,1.69897,1.462398,1.724276,1.146128,0.69897,0.30103,0.09691,0.60206,2.744879,2.951823,2.051153,2.149219,2.103804,0.30103,0.30103,0.778151,0.30103,0.69897,0.30103,no
2.049218,1.176091,2.320146,2.130334,2.429752,1.404149,1.079181,0.30103,0.037426,0.60206,2.503041,2.951823,1.839415,1.342423,1.041393,0.60206,0.30103,1.431364,0.30103,1.20412,1.230449,no
2.130334,0.60206,2.257679,2.060698,2.274158,1.678973,0.69897,0.30103,0.09691,0.477121,1.534661,1.869232,1.168792,1.30103,1.255273,0.954243,0.30103,1.146128,0.30103,0.954243,1.20412,no
2.481443,1.230449,2.68842,2.655138,2.723456,1.94939,0.845098,0.30103,0.068186,0.477121,2.68842,2.951823,1.994185,1.832509,2.103804,1.322219,0.30103,1.845098,0.477121,1.230449,1.826075,yes
2.481443,1.176091,2.557507,2.557507,2.559907,2.260071,0.477121,0,0,0.30103,1.905796,2.10721,1.454845,1.380211,2.103804,0.778151,0.69897,1.531479,0.477121,1.113943,1.414973,no
1.662758,0.778151,2.025306,1.69897,2.152288,1.140508,1.079181,0.30103,0.037426,0.60206,2.489958,2.951823,1.84342,1.477121,1.041393,0.69897,0.477121,0.90309,0.477121,0.90309,1,no
1.447158,0,1.913814,1.90309,2.037426,1.568202,0.60206,0.477121,0.222716,0.30103,1.726972,2.117271,1.247237,1.579784,2.103804,0.845098,0.477121,0.845098,0.90309,0.778151,0.845098,no
1.748188,0.477121,1.991226,1.863323,2.033424,1.27485,0.845098,0.30103,0.068186,0.477121,2.677151,2.951823,1.973128,2.149219,2.103804,0.778151,0.30103,1.230449,0.30103,1.079181,0.778151,no
2.167317,0.845098,2.523746,2.269513,2.670246,1.601191,1.113943,0.60206,0.09691,0.477121,2.392556,2.951823,1.724276,2.149219,2.103804,0.845098,0.477121,1.50515,0.30103,1.342423,1.462398,no
1.361728,0,1.838849,1.633468,1.913814,1.161368,0.845098,0.30103,0.068186,0.477121,2.677306,2.951823,1.973128,2.149219,2.103804,0.477121,0.30103,0.477121,0.30103,0.90309,0.477121,no
1.556303,0.30103,1.880814,1.690196,1.913814,1.161368,0.845098,0.30103,0.068186,0.477121,2.679428,2.951823,1.98304,2.149219,2.103804,0.60206,0.30103,1.079181,0.477121,0.30103,0.845098,no
1.973128,0.845098,2.382017,1.959041,2.547775,1.388634,1.20412,0.778151,0.123852,0.60206,2.342423,2.951823,1.695482,1.934498,2.103804,0.778151,0.30103,1.462398,0.30103,1.113943,1.342423,no
1.50515,0,1.880814,1.662758,1.977724,1.10551,0.954243,0.60206,0.139879,0.477121,2.556761,2.951823,1.859619,2.149219,2.103804,0.477121,0.30103,0.845098,0,0.845098,1,no
1.431364,0.30103,1.778151,1.579784,1.832509,1.085291,0.845098,0,0,0.477121,2.679882,2.951823,1.981501,2.149219,2.103804,0.778151,0.30103,0.477121,0.778151,0.30103,0.778151,no
2.181844,1,2.463893,2.264818,2.574031,1.413803,1.20412,0.60206,0.079181,0.60206,2.319876,2.951823,1.670246,2.149219,1.176091,0.60206,0.477121,1.322219,0.30103,1.079181,1.079181,yes
1.886491,0.845098,2.176091,1.991226,2.269513,1.333649,1,0.477121,0.08636,0.60206,2.533747,2.951823,1.856668,2.149219,2.103804,0.69897,0.30103,1.342423,0.30103,0.954243,1.278754,no
1.278754,0,1.763428,1.462398,1.851258,0.989005,0.954243,0.477121,0.09691,0.477121,2.577641,2.951823,1.888629,2.149219,2.103804,0.477121,0.30103,0.60206,0,0.477121,0.477121,no
2.049218,0.90309,2.401401,1.724276,2.534026,1.299725,1.278754,0.90309,0.143015,0.477121,2.258613,2.951823,1.622628,2.149219,2.103804,0.477121,0.30103,1.322219,0.30103,1.20412,1.342423,no
1.39794,0.30103,1.653213,1.255273,2.068186,1.244772,0.90309,0.477121,0.11059,0.477121,2.571546,2.951823,1.903849,1.544068,2.103804,0.60206,0.30103,0.477121,0,0.90309,0.60206,no
2.444045,1.079181,2.62634,2.540329,2.702431,1.710117,1.041393,0.69897,0.146128,0.60206,1.684845,2.117271,1.298853,1.361728,1.255273,1.041393,0.69897,1.477121,0.60206,1.477121,1.230449,no
2.733999,1.278754,2.957607,2.628389,3.059942,1.861475,1.230449,0.778151,0.117271,0.60206,1.669224,2.117271,1.258398,1.361728,1.255273,1.176091,0.60206,1.90309,0.90309,1.39794,1.778151,yes
2.20412,1,2.439333,2.294466,2.532754,1.588608,1,0.477121,0.08636,0.30103,1.828918,2.117271,1.422261,1.477121,2.103804,0.778151,0.477121,1.278754,0.778151,1.041393,1,yes
2.012837,1.146128,2.40824,2.371068,2.568202,1.623249,1,0.30103,0.045323,0.477121,1.920228,2.143015,1.46568,1.414973,1.255273,0.954243,0.477121,1.431364,0.778151,1.176091,1.146128,yes
2.699838,1.568202,2.948413,2.807535,3.062582,1.690905,1.39794,0.477121,0.033424,0.69897,2.202761,2.951823,1.632255,1.342423,1.255273,1.447158,0.30103,2.123852,0.477121,1.612784,1.778151,yes
2.252853,0.778151,2.695482,2.037426,2.873902,1.273927,1.633468,1.113943,0.11059,0.69897,2.046807,2.951823,1.46879,1.342423,0.845098,1.556303,0.30103,1.342423,1.579784,1.113943,1.612784,no
2.439333,1.322219,2.956649,2.608526,3.142702,1.703893,1.462398,1,0.120574,0.60206,2.080085,2.951823,1.512818,1.361728,1.255273,1.079181,0.477121,1.653213,0.69897,1.342423,1.322219,no
2.123852,0.954243,2.281033,2.037426,2.324282,1.491362,0.90309,0.30103,0.056905,0.477121,1.789369,2.117271,1.369772,1.414973,1.255273,1,0.60206,1.322219,0.90309,0.954243,1.230449,no
1.875061,0.778151,2.113943,2.029384,2.161368,1.474216,0.778151,0.30103,0.079181,0.477121,1.773786,2.117271,1.380211,1.477121,1.50515,0.954243,0.60206,1.255273,0.477121,1.322219,1.041393,no
1.732394,0.477121,1.913814,1.908485,1.919078,1.623249,0.477121,0,0,0.477121,2.877083,2.951823,2.174641,2.149219,2.103804,0.60206,0.477121,1.079181,0.30103,0.778151,1,no
1.748188,0.477121,1.954243,1.908485,1.986772,1.518514,0.60206,0,0,0.477121,2.86845,2.951823,2.170262,2.149219,2.103804,0.60206,0.477121,1.079181,0.30103,0.778151,1,no
2.222716,0.954243,2.418301,2.38739,2.444045,1.751279,0.778151,0,0,0.477121,2.682686,2.951823,2.019532,1.934498,2.103804,0.90309,0.477121,1.643453,0.30103,1.361728,1.462398,no
1.414973,0,1.491362,1.342423,1.662758,1.20412,0.60206,0,0,0.477121,2.86845,2.951823,2.170262,2.149219,2.103804,0.477121,0.30103,0.477121,0,0.90309,0.477121,no
1.556303,0.30103,1.869232,1.740363,1.892095,1.426023,0.60206,0,0,0.477121,2.86845,2.951823,2.170262,2.149219,2.103804,0.60206,0.30103,1.079181,0.30103,0.30103,0.845098,no
2.716838,1.531479,2.888741,2.801404,2.947924,1.839792,1.146128,0.778151,0.139879,0.69897,2.289187,2.951823,1.661339,1.477121,1.255273,1.113943,0.60206,1.740363,0.69897,1.556303,1.612784,no
1.968483,0.845098,2.173186,2.056905,2.232996,1.638489,0.69897,0,0,0.477121,2.768453,2.951823,2.083682,1.934498,2.103804,0.778151,0.30103,1.462398,0.30103,1.113943,1.342423,no
1.50515,0,1.80618,1.653213,1.851258,1.386142,0.60206,0,0,0.477121,2.86845,2.951823,2.170262,2.149219,2.103804,0.477121,0.30103,0.845098,0,0.845098,1,no
1.431364,0.30103,1.39794,1.278754,1.531479,1.079181,0.60206,0,0,0.477121,2.86845,2.951823,2.170262,2.149219,2.103804,0.778151,0.30103,0.477121,0.90309,0.30103,0.778151,no
2.70927,1.518514,2.818226,2.814913,2.819544,2.343743,0.60206,0,0,0.477121,1.851258,2.117271,1.426023,0.845098,1.041393,1.113943,0.60206,1.740363,0.778151,1.531479,1.612784,no
2.661813,1.230449,2.891537,2.826075,2.951338,2.10914,0.90309,0,0,0.477121,1.761251,2.10721,1.382737,0.69897,1.255273,1.591065,0.69897,1.886491,1.633468,1.447158,1.982271,yes
2.0086,0.477121,2.287802,2.217484,2.305351,1.614897,0.778151,0.30103,0.079181,0.60206,2.655331,2.951823,1.970347,1.897627,1.50515,0.954243,0.30103,1.39794,0.30103,0.954243,1.342423,no
2.717671,1.322219,3.115943,2.568202,3.297979,1.761251,1.556303,0.954243,0.089905,1,2.084326,2.951823,1.48728,1.342423,0.30103,0,0.60206,0.477121,0.30103,0.845098,0,no
1.361728,0,1.662758,1.662758,1.662758,1.662758,0.30103,0,0,0.30103,0.845098,0.845098,0.778151,0.30103,1.255273,0.69897,0.30103,0,0.69897,0,0.69897,no
1.531479,0,1.94939,1.414973,2.064458,0.96426,1.176091,0.845098,0.155336,0.60206,2.380736,2.951823,1.719,1.342423,2.103804,0.69897,0.30103,0,0.60206,0.778151,0.954243,no
1.633468,0,2.09691,1.556303,2.255273,0.960946,1.361728,0.845098,0.103804,0.845098,2.199399,2.951823,1.554126,1.342423,0.477121,0.778151,0.30103,0.30103,0.477121,0.845098,1,no
2.198657,0.60206,2.849419,2.361728,3.077004,1.610341,1.491362,0.60206,0.041393,0.778151,2.192205,2.951823,1.588832,0.69897,1.255273,1.322219,0.30103,1.568202,0.477121,1,1.531479,no
1.919078,0.778151,2.093422,2.093422,2.093422,2.093422,0.30103,0,0,0.30103,1.845098,1.845098,1.431364,1.342423,2.103804,0.90309,0.30103,1.39794,0.30103,0.954243,1.278754,no
2.209515,0.845098,2.445604,2.257679,2.522444,1.457428,1.113943,0.60206,0.09691,0.69897,2.430833,2.951823,1.754578,1.845098,1.255273,1.50515,0.30103,1.176091,0.30103,1.278754,1.662758,no
2.665581,1.278754,2.978637,2.758912,3.106871,1.79141,1.342423,1,0.155336,0.69897,2.179667,2.951823,1.549371,1.755875,1.041393,0.69897,0.477121,0.30103,0.30103,1.079181,0.69897,no
0.90309,0,1.623249,1.278754,1.69897,1.033424,0.778151,0.30103,0.079181,0.477121,2.757244,2.951823,2.051538,2.149219,2.103804,0.477121,0.30103,0,0.60206,0.30103,0.477121,no
2.450249,1,2.583199,2.491362,2.617,1.778151,0.90309,0.30103,0.056905,0.477121,1.422097,1.929419,1.068557,1.462398,1.50515,1.612784,0.30103,1.681241,0.477121,1.361728,1.924279,no
2,0.90309,2.198657,1.919078,2.260071,1.281033,1.041393,0.477121,0.079181,0.60206,2.287578,2.850646,1.711807,1.342423,1.50515,1.079181,0.30103,1.079181,0,1,1.30103,yes
1.079181,0,1.60206,1.568202,1.653213,1.079181,0.69897,0.30103,0.09691,0.60206,2.744879,2.951823,2.049218,2.149219,2.103804,0.30103,0.30103,0.477121,0,0.30103,0.30103,no
2.580925,0.60206,2.931458,2.58995,3.072617,1.7577,1.342423,0.778151,0.093422,0.69897,2.193653,2.951823,1.600537,1.342423,1.255273,0,0.60206,0.30103,0.30103,0.778151,0,yes
2.11059,0.477121,2.418301,2.409933,2.426511,1.829304,0.69897,0.30103,0.09691,0.477121,2.619615,2.951823,1.935759,2.149219,2.103804,1.176091,0.30103,1.041393,0.477121,0.69897,1.579784,no
2.152288,0.69897,2.404834,2.396199,2.4133,1.816241,0.69897,0.30103,0.09691,0.477121,2.619615,2.951823,1.935759,2.149219,2.103804,1.30103,0.30103,1.278754,0.60206,0.778151,1.518514,no
1.80618,0.778151,2.082785,2.071882,2.093422,1.501744,0.69897,0.30103,0.09691,0.477121,2.619615,2.951823,1.935759,2.149219,2.103804,0.90309,0.30103,1.079181,0.30103,0.477121,1.255273,no
1.812913,0,2.045323,2.037426,2.049218,1.458638,0.69897,0.30103,0.09691,0.477121,2.749929,2.951823,2.056905,2.149219,2.103804,1.041393,0.60206,0.30103,0,0.30103,1.361728,no
1.80618,0,2.041393,2.033424,2.045323,1.454845,0.69897,0.30103,0.09691,0.477121,2.749929,2.951823,2.056905,2.149219,2.103804,1.041393,0.60206,0.69897,0.30103,0.477121,1.30103,no
2.352183,1.322219,2.691965,2.691081,2.692847,2.217484,0.60206,0.30103,0.123852,0.477121,2.710397,2.951823,2.015653,2.149219,2.103804,1.462398,0.60206,1.380211,0.30103,0.69897,1.934498,no
1.662758,0,1.94939,1.939519,1.954243,1.366423,0.69897,0.30103,0.09691,0.477121,2.749929,2.951823,2.056905,2.149219,2.103804,1,0.69897,0.90309,0.30103,0.60206,1.041393,no
3.065953,1.380211,3.260071,3.254548,3.269746,2.49276,0.845098,0.30103,0.068186,0.60206,2.449741,2.951823,1.78533,1.897627,1.50515,0.30103,0.30103,0.477121,0.30103,0.845098,0.69897,no
2.44248,0.778151,2.749736,2.509203,2.889302,1.578181,1.342423,0.845098,0.11059,0.778151,2.212188,2.951823,1.619824,1.342423,1.255273,0,0.60206,0,0,0.477121,0,no
1,0,1.653213,1.643453,1.662758,1.20412,0.60206,0.30103,0.123852,0.477121,2.710397,2.951823,2.015653,2.149219,2.103804,0.477121,0.477121,0,0.30103,0.30103,0.477121,no
1,0,1.662758,1.653213,1.672098,1.212986,0.60206,0.30103,0.123852,0.477121,2.710397,2.951823,2.015653,2.149219,2.103804,0.477121,0.477121,0,0.30103,0.30103,0.477121,no
2.605305,1.146128,3.260787,2.522444,3.496515,1.795811,1.716003,1.278754,0.130334,0.954243,1.947777,2.951823,1.365862,1.342423,0.477121,0,0.60206,0.30103,0.30103,0.69897,0,no
2.1959,1.041393,2.380211,2.257679,2.457882,1.764923,0.778151,0.30103,0.079181,0.477121,2.699664,2.951823,2.01368,2.149219,2.103804,0.477121,0.30103,0.90309,0,0.60206,0.69897,yes
1.322219,0,1.812913,1.447158,1.924279,0.968483,1.041393,0.477121,0.079181,0.60206,2.495267,2.951823,1.814913,1.342423,1.041393,0.69897,0.30103,0,0,0.90309,0.69897,no
1.568202,0,3.270213,2.432969,3.563244,1.778006,1.799341,1.361728,0.130334,0.954243,1.897352,2.951823,1.367729,1.342423,0.954243,0.60206,0.477121,1.113943,0.30103,0.954243,0.90309,no
1.792392,0.477121,2.103804,1.986772,2.190332,1.596597,0.69897,0,0,0.30103,1.948168,2.10721,1.534661,1.342423,2.103804,0.778151,0.30103,1.322219,0.477121,1.113943,1.041393,no
1.748188,0.60206,2.037426,1.792392,2.127105,1.198107,1,0.30103,0.045323,0.477121,2.561364,2.951823,1.880185,1.380211,2.103804,0.778151,0.30103,1.146128,0.477121,0.954243,1.322219,no
1.897627,0,2.365488,2.017033,2.539076,1.439964,1.146128,0.477121,0.060698,0.477121,2.427519,2.951823,1.774225,1.380211,2.103804,0.954243,0.30103,1.176091,0.69897,1.041393,1.255273,no
2.206826,0.477121,2.439333,2.287802,2.541579,1.552668,1.041393,0.30103,0.041393,0.60206,2.308564,2.850646,1.70927,1.342423,1.255273,1,0.477121,1.544068,0.30103,1.278754,1.681241,no
2.164353,0.60206,2.463893,2.173186,2.587711,1.520745,1.113943,0.477121,0.068186,0.69897,2.247973,2.850646,1.665112,1.342423,1.255273,1,0.477121,1.544068,0.30103,1.255273,1.477121,no
2.045323,0.60206,2.340444,1.778151,2.453318,1.271609,1.230449,0.60206,0.075547,0.477121,2.350849,2.951823,1.700617,1.755875,2.103804,0.845098,0.30103,1.30103,0.845098,1.079181,1.431364,no
1.832509,0.60206,2.079181,1.643453,2.133539,1.252368,0.954243,0.477121,0.09691,0.477121,2.564228,2.951823,1.886491,2.149219,2.103804,1,0.30103,0.90309,0.477121,0.778151,1.113943,no
2.507856,1.342423,2.731589,2.584331,2.836324,2.061339,0.845098,0.30103,0.068186,0.30103,1.826075,2.10721,1.400883,1.342423,2.103804,1.322219,0.477121,1.716003,0.30103,1.322219,1.838849,no
1.531479,0,1.799341,1.799341,1.799341,1.799341,0.30103,0,0,0.30103,1.919078,1.919078,1.50515,1.832509,2.103804,0.954243,0.30103,0.30103,0,0.30103,0.954243,no
2.184691,0.90309,2.350248,2.227887,2.383815,1.910251,0.60206,0,0,0.30103,1.758382,1.919078,1.374198,1.477121,2.103804,1.079181,0.60206,1.431364,0.30103,1,1.342423,no
1.633468,0,1.880814,1.880814,1.880814,1.880814,0.30103,0,0,0.30103,1.919078,1.919078,1.50515,1.832509,2.103804,1.079181,0.30103,0,0,0,1.079181,no
1.732394,0.30103,1.939519,1.939519,1.939519,1.939519,0.30103,0,0,0.30103,1.919078,1.919078,1.50515,1.832509,2.103804,1,0.30103,0.69897,0.477121,0.30103,1.20412,no
2.178977,0.477121,2.298853,2.298853,2.298853,2.298853,0.30103,0,0,0.30103,1.919078,1.919078,1.50515,1.832509,2.103804,0.90309,0.30103,1.531479,0.30103,0.778151,1.612784,no
2.176091,0.60206,2.489958,2.404834,2.617,1.922206,0.778151,0.30103,0.079181,0.30103,1.802089,2.10721,1.394452,1.342423,2.103804,1.39794,0.30103,1.39794,0.69897,1.176091,1.568202,no
1.653213,1,1.880814,1.880814,1.880814,1.880814,0.30103,0,0,0.30103,1.919078,1.919078,1.50515,1.832509,2.103804,0.477121,0.477121,1.041393,0.477121,0.778151,0.60206,no
3.07225,1.361728,3.258398,3.258398,3.258637,2.957847,0.477121,0,0,0.30103,1.64836,1.869232,1.290035,1.477121,2.103804,0.30103,0.30103,0.477121,0.30103,0.845098,0.69897,no
2.432969,0.954243,2.556303,2.409933,2.588832,1.894316,0.778151,0,0,0.30103,1.869232,2.10721,1.456366,1.342423,2.103804,1.255273,0.477121,1.80618,0.30103,1.278754,1.755875,no
2.152288,0.845098,2.322219,2.173186,2.361728,1.765296,0.69897,0,0,0.30103,1.638489,1.919078,1.261263,1.477121,2.103804,0.954243,0.477121,1.672098,0.30103,1,1.447158,no
2.62941,1.230449,2.710963,2.710963,2.710963,2.710963,0.30103,0,0,0.30103,1.176091,1.176091,0.778151,1.672098,2.103804,1.531479,0.477121,1.653213,0.69897,0.90309,2.060698,no
1.977724,0.30103,2.1959,2.133539,2.238046,1.549003,0.778151,0,0,0.30103,1.869232,2.10721,1.456366,1.342423,2.103804,0.845098,0.477121,1.30103,0.60206,1.113943,1.113943,no
2.20412,0.778151,2.544068,2.130334,2.679428,1.31973,1.39794,1.041393,0.152288,0.778151,2.20197,2.951823,1.55582,1.826075,1.255273,1.531479,0.30103,1.146128,1,1.30103,1.662758,no
2.232996,0.954243,2.419956,2.31597,2.466868,1.574031,0.954243,0.30103,0.053078,0.477121,2.493458,2.951823,1.847449,1.361728,2.103804,0.778151,0.60206,1.146128,0.477121,1.176091,0.90309,no
1.929419,0.69897,2.161368,2.103804,2.217484,1.452247,0.845098,0.30103,0.068186,0.477121,2.602418,2.951823,1.930287,1.544068,2.103804,0.30103,0.60206,0.954243,0.30103,0.954243,0.30103,no
2.320146,1,2.481443,2.369216,2.523746,1.629715,0.954243,0.30103,0.053078,0.477121,2.493458,2.951823,1.847449,1.361728,2.103804,0.778151,0.60206,1.146128,0.30103,1.146128,1,no
1.924279,0.845098,2.146128,2.089905,2.201397,1.43664,0.845098,0.30103,0.068186,0.477121,2.595132,2.951823,1.931966,1.544068,2.103804,0.30103,0.60206,0.954243,0.30103,0.954243,0.30103,no
1.716003,0,2.120574,1.78533,2.252853,1.366423,0.954243,0.30103,0.053078,0.60206,2.565848,2.951823,1.870696,1.361728,1.176091,0.954243,0.30103,0.60206,0,0.69897,1.113943,no
1.531479,0.60206,1.78533,1.78533,1.78533,1.78533,0.30103,0,0,0.30103,1.462398,1.462398,1.146128,1.361728,2.103804,0.90309,0.30103,0,0.30103,0.477121,0.90309,no
1.799341,0.778151,2.093422,1.838849,2.181844,1.1329,1.113943,0,0,0.845098,2.398374,2.951823,1.711132,0.30103,0.69897,0.954243,0.30103,1.30103,0.60206,1.041393,1.079181,no
1.544068,0,1.851258,1.792392,1.892095,1.426023,0.60206,0,0,0.477121,2.86845,2.951823,2.170262,2.149219,2.103804,0.90309,0.30103,0,0.477121,0.477121,1,no
2.123852,0.477121,2.39794,2.225309,2.503791,1.666799,0.90309,0,0,0.477121,2.5469,2.951823,1.892873,1.934498,2.103804,1.079181,0.30103,1.414973,0.60206,0.90309,1.414973,no
1.176091,0,1.342423,1.113943,1.612784,1.156246,0.60206,0,0,0.477121,2.86845,2.951823,2.170262,2.149219,2.103804,0.477121,0.30103,0,0.30103,0.477121,0.477121,no
1.477121,0,1.799341,1.544068,1.869232,1.058046,0.90309,0,0,0.69897,2.617304,2.951823,1.914555,2.149219,1.176091,0.477121,0.30103,0.477121,0.69897,0.954243,0.477121,no
2,0.778151,2.161368,2.130334,2.178977,1.880814,0.477121,0,0,0.477121,1.40654,1.462398,1.021189,0.30103,1.255273,0.90309,0.30103,1.20412,0.30103,0.90309,1.230449,no
2.068186,0.60206,2.230449,2.161368,2.245513,1.946943,0.477121,0,0,0.477121,1.40654,1.462398,1.021189,0.30103,1.255273,1,0.30103,1.230449,0.30103,0.954243,1.462398,no
1.924279,0.778151,2.240549,2.053078,2.348305,1.458638,0.954243,0.477121,0.09691,0.477121,2.353147,2.850646,1.683497,1.963788,2.518514,0.954243,0.60206,0.60206,0.90309,0.954243,0.954243,no
1.851258,0.30103,2.049218,2.049218,2.049218,2.049218,0.30103,0,0,0.30103,1.69897,1.69897,1.380211,1.491362,2.531479,1.20412,0.477121,0.60206,0.30103,0.778151,1.322219,no
1.568202,0.30103,1.826075,1.826075,1.826075,1.826075,0.30103,0,0,0.30103,1.462398,1.462398,1.20412,1.230449,2.531479,0.90309,0.477121,0.60206,0.30103,0.69897,0.90309,no
1.633468,0.30103,1.875061,1.819544,1.886491,1.420451,0.60206,0,0,0.30103,1.895809,2.342423,1.271144,2.017033,2.531479,0.954243,0.477121,0.477121,0.60206,0.477121,0.954243,no
1.568202,0.60206,1.90309,1.716003,1.968483,1.150449,0.90309,0.30103,0.056905,0.477121,2.410423,2.850646,1.73472,2.004321,2.518514,1,0.477121,0.60206,1,0.60206,1,no
1.079181,0.30103,1.518514,1.518514,1.518514,1.518514,0.30103,0.30103,0.30103,0.30103,1.113943,1.113943,1,2.152288,2.531479,0.477121,0.60206,0.30103,0,0.30103,0.60206,no
1.857332,0.60206,2.10721,1.929419,2.161368,1.278754,0.954243,0.30103,0.053078,0.60206,2.359608,2.850646,1.708676,1.491362,1.792392,1,0.477121,0.778151,0.69897,0.778151,1,no
1.414973,0.30103,1.770852,1.653213,1.826075,1.361728,0.60206,0,0,0.30103,1.939519,2.342423,1.308137,2.017033,2.531479,0.778151,0.60206,0.69897,0.60206,0.778151,0.778151,no
1.544068,0.30103,1.778151,1.778151,1.778151,1.778151,0.30103,0,0,0.30103,1.69897,1.69897,1.380211,1.491362,2.531479,0.778151,0.60206,1,0.477121,0.60206,0.954243,no
1.770852,0.30103,2.149219,1.662758,2.281033,1.30103,1.041393,0.477121,0.079181,0.60206,2.322839,2.850646,1.691965,1.591065,1.792392,1.079181,0.477121,0.954243,1.113943,0.60206,1.176091,no
1.041393,0.30103,1.50515,1.342423,1.531479,1.079181,0.60206,0.30103,0.123852,0.30103,2.134591,2.342423,1.500648,1.819544,2.531479,0.477121,0.69897,0.30103,0.60206,0.60206,0.477121,no
1.579784,0.30103,1.819544,1.819544,1.819544,1.819544,0.30103,0,0,0.30103,2.361728,2.361728,1.857332,1.623249,2.531479,0.90309,0.477121,0.60206,0.30103,0.60206,0.90309,no
2.502427,1.342423,2.755875,2.232996,2.857935,1.662758,1.230449,0.477121,0.053078,0.60206,2.155913,2.850646,1.563837,1.491362,1.792392,1.431364,0.954243,0.69897,0.845098,1.041393,1.431364,no
1.653213,0.30103,1.908485,1.838849,1.939519,1.352183,0.69897,0,0,0.30103,1.819544,2.342423,1.197281,2.017033,2.531479,1.041393,0.477121,0.60206,0.60206,0.60206,1.041393,no
1.431364,0.60206,1.716003,1.716003,1.716003,1.716003,0.30103,0,0,0.30103,1.079181,1.079181,0.90309,2.053078,1.778151,0.778151,0.477121,0.60206,0.30103,0.60206,0.845098,no
1.556303,0.477121,1.80618,1.80618,1.80618,1.80618,0.30103,0,0,0.30103,1.447158,1.447158,1,2.11059,2.531479,0.90309,0.30103,0.60206,0.477121,0.30103,0.954243,no
1.447158,0.30103,1.724276,1.724276,1.724276,1.724276,0.30103,0,0,0.30103,2.361728,2.361728,1.857332,1.623249,2.531479,0.778151,0.477121,0.477121,0.30103,0.60206,0.778151,no
1.568202,0.30103,1.875061,1.544068,1.939519,1.185542,0.845098,0.30103,0.068186,0.30103,2.046612,2.361728,1.4843,1.623249,2.531479,0.845098,0.477121,0.477121,0.845098,0.477121,0.90309,no
1.414973,0.30103,1.748188,1.653213,1.78533,1.491362,0.477121,0,0,0.30103,2.108903,2.342423,1.454845,2.017033,2.531479,0.778151,0.60206,0.60206,0.60206,0.69897,0.778151,no
1.20412,0.477121,1.591065,1.591065,1.591065,1.591065,0.30103,0,0,0.30103,1.662758,1.662758,1.462398,1.361728,2.531479,0.60206,0.60206,0.60206,0,0.477121,0.60206,no
1.880814,0.30103,2.143015,1.908485,2.176091,1.34811,0.90309,0.30103,0.056905,0.477121,2.409206,2.850646,1.731266,1.176091,2.518514,0.954243,0.30103,1,1.763428,1,1.255273,no
1.740363,0.60206,1.991226,1.623249,2.041393,1.075547,1.041393,0.69897,0.146128,0.477121,2.258158,2.850646,1.603144,1.799341,2.518514,1.079181,0.477121,0.90309,0.845098,0.778151,1.230449,no
1.414973,0.30103,1.875061,1.477121,1.919078,1.240549,0.778151,0.30103,0.079181,0.30103,1.958086,2.342423,1.354108,1.176091,2.531479,0.778151,0.60206,0.60206,0.778151,0.69897,0.845098,no
1.556303,0.30103,1.799341,1.755875,1.799341,1.50515,0.477121,0,0,0.30103,2.297761,2.342423,1.638489,2.017033,2.531479,0.90309,0.60206,0.69897,0.845098,0.845098,0.954243,no
1.255273,0.30103,1.322219,1.146128,1.447158,1.161368,0.477121,0,0,0.30103,1.984527,2.247973,1.423246,2.380211,2.531479,0.69897,0.60206,0,0.60206,0.477121,0.69897,no
1.963788,0.30103,2.133539,2.09691,2.136721,1.665862,0.60206,0.30103,0.123852,0.30103,2.032095,2.342423,1.486714,1.963788,2.531479,1.361728,0.477121,0.60206,0.778151,0.60206,1.361728,no
1.361728,0.477121,1.672098,1.672098,1.672098,1.672098,0.30103,0,0,0.30103,1.50515,1.50515,1.176091,0.845098,2.531479,0.69897,0.477121,0.477121,0.30103,0.477121,0.778151,no
1.39794,0.477121,1.447158,1.079181,1.755875,1.293804,0.60206,0.30103,0.123852,0.30103,2.129271,2.342423,1.49596,2.017033,2.531479,0.778151,0.60206,0.60206,0.69897,0.60206,0.778151,no
1.748188,0.30103,2.093422,1.897627,2.201397,1.43664,0.845098,0.30103,0.068186,0.477121,2.470557,2.850646,1.794697,1.963788,2.518514,1.146128,0.60206,0.778151,0.845098,0.90309,1.146128,no
1.477121,0.477121,1.80618,1.732394,1.845098,1.261263,0.69897,0,0,0.477121,2.582347,2.850646,1.898999,2.440909,2.518514,0.778151,0.30103,0.845098,1.255273,0.954243,0.778151,no
1.462398,0.477121,1.826075,1.662758,1.892095,1.214844,0.778151,0,0,0.477121,2.54382,2.850646,1.859739,2.017033,2.518514,0.845098,0.60206,0.778151,0.845098,0.69897,0.845098,no
1.591065,0.69897,1.939519,1.69897,2.029384,1.106531,1,0.69897,0.158362,0.477121,2.318522,2.850646,1.663795,1.863323,2.518514,0.845098,0.477121,0.845098,0.845098,0.60206,0.90309,no
1.662758,0.477121,1.954243,1.954243,1.954243,1.954243,0.30103,0,0,0.30103,2.342423,2.342423,1.653213,2.017033,2.531479,1.041393,0.60206,0.954243,0.477121,0.778151,1.113943,no
1.079181,0,1.041393,1.041393,1.230449,1.230449,0.30103,0,0,0.30103,2.247973,2.247973,1.623249,2.440909,2.531479,0.477121,0.60206,0.30103,0.60206,0.60206,0.477121,no
1.176091,0.30103,1.740363,1.414973,1.863323,1.113943,0.845098,0,0,0.477121,2.46712,2.850646,1.793581,2.017033,2.518514,0.60206,0.477121,0.477121,0.30103,0.477121,0.60206,no
1.579784,0,1.880814,1.845098,1.939519,1.643453,0.477121,0,0,0.30103,2.093422,2.342423,1.462398,2.017033,2.531479,0.90309,0.60206,0.845098,0.69897,0.69897,0.90309,no
1.653213,0.60206,2.041393,1.812913,2.155336,1.224792,1,0.477121,0.08636,0.69897,2.307966,2.850646,1.646698,1.491362,1.778151,1.041393,0.60206,0.778151,0.845098,0.90309,1.041393,no
1.568202,0.30103,1.819544,1.812913,1.826075,1.531479,0.477121,0.30103,0.176091,0.477121,1.732394,1.869232,1.361728,1.591065,1.778151,0.954243,0.477121,0.69897,0.477121,0.60206,1,no
1.643453,0.30103,1.954243,1.724276,2.025306,1.342423,0.778151,0,0,0.477121,2.54382,2.850646,1.859739,2.017033,2.518514,1.041393,0.477121,0.60206,0.954243,0.778151,1.079181,no
1.653213,0.30103,1.851258,1.799341,1.863323,1.39794,0.60206,0,0,0.30103,2.160378,2.342423,1.518514,2.017033,2.531479,0.90309,0.477121,0.90309,0.845098,0.60206,0.954243,no
1.255273,0,1.724276,1.579784,1.812913,1.139879,0.778151,0,0,0.477121,2.54382,2.850646,1.859739,2.017033,2.518514,0.69897,0.60206,0.60206,0.477121,0.69897,0.69897,no
1.544068,0.477121,1.880814,1.778151,1.954243,1.274158,0.778151,0,0,0.477121,2.54382,2.850646,1.859739,2.017033,2.518514,0.90309,0.60206,0.69897,0.90309,0.845098,0.954243,no
1.431364,0.477121,1.792392,1.633468,1.851258,1.176091,0.778151,0,0,0.477121,2.54382,2.850646,1.859739,2.017033,2.518514,0.778151,0.60206,0.69897,0.845098,0.69897,0.778151,no
1.322219,0.477121,1.653213,1.591065,1.653213,1.361728,0.477121,0.30103,0.176091,0.30103,2.080987,2.342423,1.447158,2.017033,2.531479,0.69897,0.60206,0.60206,0.477121,0.60206,0.69897,no
1.255273,0,0.90309,0.69897,1.462398,1.176091,0.477121,0,0,0.30103,2.108903,2.342423,1.454845,2.017033,2.531479,0.69897,0.60206,0.60206,0.60206,0.60206,0.69897,no
1.886491,0.30103,2.158362,2,2.222716,1.534026,0.778151,0,0,0.477121,2.54382,2.850646,1.859739,2.017033,2.518514,0.845098,0.60206,0.60206,0.90309,0.845098,0.845098,no
1.544068,0.477121,1.875061,1.579784,1.939519,1.070038,0.954243,0.30103,0.053078,0.60206,2.356026,2.850646,1.686904,1.491362,1.792392,0.954243,0.60206,0.69897,0.845098,0.778151,0.954243,no
1.431364,0.60206,1.716003,1.716003,1.716003,1.716003,0.30103,0,0,0.30103,1.113943,1.113943,0.954243,2.100371,1.778151,0.778151,0.477121,0.60206,0.477121,0.60206,0.845098,no
1.50515,0.60206,1.763428,1.763428,1.763428,1.763428,0.30103,0,0,0.30103,1.447158,1.447158,1,2.11059,2.531479,0.845098,0.477121,0.60206,0.477121,0.69897,0.90309,no
1.69897,0.60206,1.908485,1.897627,1.913814,1.618048,0.477121,0.30103,0.176091,0.30103,1.243038,1.447158,0.929419,2.09691,2.531479,1.041393,0.30103,0.778151,0.60206,0.30103,1.113943,no
1.322219,0.477121,1.716003,1.50515,1.763428,1.093422,0.778151,0,0,0.477121,2.54382,2.850646,1.859739,2.017033,2.518514,0.778151,0.477121,0.60206,1.322219,0.477121,0.778151,no
1.361728,0.30103,1.414973,1.30103,1.50515,1.217484,0.477121,0,0,0.30103,2.297761,2.342423,1.638489,2.017033,2.531479,0.69897,0.477121,0.477121,0.778151,0.60206,0.69897,no
2.746634,1.591065,2.950851,2.426511,3.057286,1.78533,1.30103,0.778151,0.100371,0.69897,2.244203,2.951823,1.64914,1.230449,1.778151,1.556303,0.30103,1.255273,1.518514,1.39794,1.880814,no
1.342423,0.30103,2.037426,1.863323,2.217484,1.387923,0.90309,0.30103,0.056905,0.477121,2.537643,2.951823,1.881613,2.267172,2.518514,0.69897,0.477121,0.69897,0,0.778151,0.69897,no
2.071882,0,2.217484,2.178977,2.230449,1.931966,0.477121,0.30103,0.176091,0.30103,1.60206,1.69897,1.322219,1.230449,2.531479,1.255273,0.30103,1.230449,0.69897,1.113943,1.431364,no
1.477121,0,2.068186,1.477121,2.332438,1.157759,1.230449,0.477121,0.053078,0.69897,2.247064,2.951823,1.671543,1.20412,1.792392,0,0.30103,0,0.477121,0,0,no
2.704151,1.278754,3.01536,2.456366,3.117934,1.550228,1.591065,0.845098,0.064458,0.845098,2.078421,2.951823,1.522314,0,1.778151,1.662758,0.30103,1.863323,1.70757,1.380211,2.255273,no
1.851258,0.477121,2.733197,2.285557,2.969416,1.440909,1.556303,0.954243,0.089905,0.69897,2.142045,2.951823,1.535167,1.230449,1.778151,1.176091,0.30103,1.361728,1.812913,1.079181,1.230449,no
1.968483,0.30103,2.324282,1.959041,2.460898,1.434249,1.079181,0.778151,0.161368,0.477121,1.80679,2.361728,1.428459,1,1.792392,0.90309,0.30103,1.531479,0.477121,1,1.278754,no
1.60206,0.477121,2.31597,1.690196,2.541579,1.263636,1.322219,0.477121,0.041393,0.60206,2.302006,2.951823,1.65273,2.004321,2.123852,0.845098,0.30103,0.69897,1.146128,0.90309,0.954243,no
2.227887,0.778151,2.727541,2.103804,2.925828,1.492341,1.462398,0.778151,0.071882,0.778151,2.191535,2.951823,1.571592,0,1.041393,1.39794,0.30103,1.672098,1.278754,1.146128,1.591065,no
2.068186,0.778151,2.556303,2.40654,2.751279,1.680517,1.113943,0.60206,0.09691,0.477121,2.456366,2.951823,1.808414,1.230449,2.518514,1.20412,0.30103,1.568202,1.113943,1,1.30103,no
1.716003,0.69897,1.939519,1.939519,1.973128,1.50515,0.60206,0,0,0.30103,2.014226,2.10721,1.50515,2.269513,2.531479,0.845098,0.30103,1.079181,1.380211,1.30103,0.954243,no
1.50515,0,1.973128,1.716003,2.120574,1.19201,1,0,0,0.60206,2.56017,2.951823,1.872506,2.40654,2.123852,0.477121,0.30103,1.113943,0.477121,0.90309,0.69897,no
1.518514,0,1.763428,1.230449,2.053078,1.128399,1,0,0,0.69897,2.472274,2.951823,1.824646,1.851258,1.778151,0.477121,0.30103,1.113943,0.477121,1,0.69897,no
2.049218,0.60206,2.495544,2.068186,2.672098,1.367915,1.342423,0.69897,0.075547,0.778151,2.269513,2.951823,1.635383,1.851258,1.792392,1.278754,0.30103,1.380211,1.146128,1,1.477121,no
2.060698,0.90309,2.489958,2.290035,2.658965,1.885531,0.845098,0,0,0.477121,2.015653,2.361728,1.539954,1.623249,1.792392,1.278754,0.30103,1.30103,0.30103,0.90309,1.447158,no
2.079181,0.69897,2.264818,2.152288,2.303196,1.830396,0.60206,0,0,0.477121,2.023952,2.361728,1.591065,1.623249,1.792392,1.278754,0.30103,1.447158,0.845098,1.176091,1.380211,no
2.445604,0.845098,2.882525,2.206826,3.062582,1.435048,1.653213,1.113943,0.103804,0.778151,2.082462,2.951823,1.50637,1.591065,1.778151,1.531479,0.30103,1.763428,1.633468,1.176091,1.897627,no
1.897627,0.477121,2.146128,1.838849,2.1959,1.311754,0.954243,0.30103,0.053078,0.60206,2.491544,2.951823,1.836514,1.230449,1.792392,1.176091,0.30103,1.146128,0.60206,0.90309,1.230449,no
2.10721,0.778151,2.561101,2.152288,2.742725,1.577492,1.20412,0.60206,0.079181,0.477121,2.339113,2.951823,1.691347,1.230449,2.518514,1.30103,0.30103,1.556303,0.845098,1.113943,1.491362,no
1.819544,0.778151,2.113943,1.968483,2.181844,1.417804,0.845098,0,0,0.60206,2.676849,2.951823,1.973128,2.481443,2.123852,1.176091,0.30103,0.954243,0.778151,0.69897,1.20412,no
2.0086,0.845098,2.392697,1.643453,2.537819,1.260071,1.322219,0.778151,0.09691,0.60206,2.268812,2.951823,1.631951,1.78533,1.041393,0.60206,0.30103,1.60206,0.477121,0.90309,1.556303,no
2.045323,0.778151,2.318063,2.103804,2.423246,1.481872,1,0.30103,0.045323,0.69897,2.526766,2.951823,1.840921,1.851258,1.792392,1.176091,0.30103,1.431364,0.69897,1,1.447158,no
2.322219,0.778151,2.728354,2.380211,2.903633,1.73504,1.20412,0.60206,0.079181,0.60206,2.349608,2.951823,1.703549,1.230449,2.123852,1.414973,0.30103,1.544068,1.113943,1.079181,1.778151,no
2.247973,0.90309,2.514548,2.130334,2.624282,1.491362,1.176091,0.477121,0.056905,0.60206,2.346627,2.951823,1.745387,0.30103,1.792392,1.462398,0.30103,1.672098,1.414973,1.278754,1.653213,no
2.170262,0.69897,2.592177,2.225309,2.765669,1.478566,1.322219,0.60206,0.060698,0.778151,2.268578,2.951823,1.625312,1.690196,1.778151,1.322219,0.30103,1.50515,1.322219,1.146128,1.612784,no
1.431364,0.30103,1.851258,1.591065,1.954243,1.137037,0.90309,0.30103,0.056905,0.477121,2.645422,2.951823,1.960423,2.269513,2.518514,0.30103,0.30103,0.845098,0,0.90309,0.60206,no
2.804821,1.462398,3.108565,2.592177,3.242293,1.850279,1.414973,0.90309,0.10721,0.60206,1.529943,2.361728,1.224274,1.113943,1.792392,1.653213,0.477121,2.127105,0.30103,1.755875,2.214844,yes
1.982271,0.60206,2.283301,2.187521,2.340444,1.649335,0.778151,0.477121,0.146128,0.60206,1.764923,2.361728,1.354108,1.623249,1.792392,0.90309,0.30103,1.322219,0.477121,0.778151,1.146128,no
2.029384,1.146128,2.348305,2.230449,2.488551,1.545431,1,0.30103,0.045323,0.60206,1.79393,2.361728,1.335859,1.477121,1.792392,0.778151,0.30103,1.176091,0.477121,1.20412,1.69897,no
2.92993,1.491362,3.195346,2.672098,3.321805,1.696968,1.643453,0.90309,0.064458,0.778151,2.016824,2.951823,1.491081,1.176091,1.778151,1.146128,0.477121,1.544068,0.69897,1.255273,1.39794,no
1.491362,0,1.929419,1.740363,2.025306,1.267172,0.845098,0.30103,0.068186,0.60206,2.584139,2.951823,1.910251,1.633468,1.778151,0.778151,0.477121,0.778151,0.477121,0.778151,0.778151,no
1.380211,0,1.819544,1.70757,1.913814,1.235528,0.778151,0,0,0.477121,2.671913,2.951823,2.004321,2.369216,2.518514,0.778151,0.30103,0.60206,0,0.69897,0.778151,no
3.202488,2.158362,3.543323,2.951823,3.698014,2.42083,1.30103,0.845098,0.120574,0.60206,1.668665,2.361728,1.305566,1.230449,1.792392,1.851258,0.477121,2.267172,0.778151,1.748188,2.472756,no
2.432969,1.380211,3.24279,2.947924,3.493458,2.453456,1.079181,0.60206,0.103804,0.60206,1.736795,2.361728,1.361728,1.556303,1.792392,1,0.60206,1.491362,0.69897,1.322219,1.755875,no
2.531479,0.778151,2.641474,2.287802,2.781037,1.675595,1.146128,0.477121,0.060698,0.60206,2.368789,2.951823,1.768564,1.230449,1.792392,1.623249,0.30103,1.792392,0.477121,1.447158,2,no
2.311754,1.342423,2.774517,2.267172,2.953276,2.0029,1,0.477121,0.08636,0.60206,1.631241,2.361728,1.25261,1.623249,1.792392,0.954243,0.60206,1.531479,0.30103,0.845098,1.643453,no
1.653213,0,1.924279,1.819544,1.986772,1.39794,0.69897,0.60206,0.243038,0.30103,1.846646,2.361728,1.414973,0,2.531479,0.778151,0.477121,1.113943,0,0.60206,1.079181,no
1.60206,0,1.863323,1.832509,1.913814,1.618048,0.477121,0,0,0.30103,2.091667,2.361728,1.607455,1.623249,2.531479,0.778151,0.477121,0.60206,0,0.477121,0.778151,no
2.176091,0.60206,2.290035,2.264818,2.30103,2.002166,0.477121,0.30103,0.176091,0.477121,1.290035,1.477121,1.021189,0.30103,1.778151,1.146128,0.30103,1.544068,0.30103,0.954243,1.612784,no
1.968483,0,2.161368,2.127105,2.198657,1.900367,0.477121,0,0,0.30103,2.091667,2.361728,1.607455,1.623249,2.531479,0.778151,0.477121,1.39794,0,0.954243,1.230449,no
1.919078,0.30103,2.187521,2.136721,2.287802,1.692406,0.69897,0.30103,0.09691,0.30103,2.006466,2.361728,1.571126,1.623249,2.531479,0.845098,0.477121,1.568202,0.30103,1.113943,1.255273,no
1.924279,0.477121,2.089905,2.068186,2.11059,1.812913,0.477121,0.30103,0.176091,0.477121,0.929419,1.041393,0.740363,0.477121,1.778151,0.778151,0.60206,1.041393,0,0.60206,1.041393,no
1.380211,0,1.740363,1.716003,1.792392,1.498311,0.477121,0,0,0.30103,2.091667,2.361728,1.607455,1.623249,2.531479,0.778151,0.477121,0.60206,0,0.477121,0.778151,no
1.50515,0,1.763428,1.763428,1.763428,1.763428,0.30103,0,0,0.30103,1.041393,1.041393,0.778151,1.30103,2.531479,0.778151,0.477121,0.845098,0,0.60206,0.845098,no
1.845098,0.30103,2.071882,1.869232,2.130334,1.537819,0.69897,0,0,0.477121,1.834103,2.361728,1.380211,1.30103,1.778151,0.845098,0.477121,0.845098,0.30103,0.60206,0.90309,no
1.39794,0,1.690196,1.690196,1.690196,1.690196,0.30103,0,0,0.30103,2.361728,2.361728,1.857332,1.623249,2.531479,0.778151,0.477121,0.60206,0,0.60206,0.845098,no
1.361728,0.477121,1.380211,1.380211,1.556303,1.556303,0.30103,0,0,0.30103,2.361728,2.361728,1.857332,1.623249,2.531479,0.69897,0.30103,0.477121,0,0.30103,0.69897,no
1.556303,0,1.792392,1.792392,1.792392,1.792392,0.30103,0,0,0.30103,2.361728,2.361728,1.857332,1.623249,2.531479,0.778151,0.477121,1,0,0.69897,0.954243,no
2.222716,0.90309,2.423246,2.419956,2.423246,2.123852,0.477121,0,0,0.30103,2.139879,2.361728,1.703291,1.361728,2.531479,1.146128,0.30103,1.39794,0.30103,0.778151,1.716003,no
1.50515,0,1.763428,1.763428,1.763428,1.763428,0.30103,0,0,0.30103,1.041393,1.041393,0.778151,1.30103,2.531479,0.778151,0.477121,0.90309,0,0.60206,0.845098,no
2.608526,1.146128,3.267172,2.574031,3.505964,1.735759,1.78533,1.079181,0.071882,0.845098,1.906443,2.951823,1.379306,0.30103,1.778151,1.278754,0.30103,2,0.477121,1.70757,1.954243,yes
1.176091,0,1.20412,1.20412,1.447158,1.447158,0.30103,0,0,0.30103,2.361728,2.361728,1.857332,1.623249,2.531479,0.60206,0.477121,0.30103,0.30103,0.30103,0.60206,no
1.929419,0,2.136721,2.09691,2.184691,1.886491,0.477121,0,0,0.30103,2.091667,2.361728,1.607455,1.623249,2.531479,1.079181,0.30103,1.146128,1.146128,0.845098,1.342423,no
1.447158,0,1.724276,1.724276,1.724276,1.724276,0.30103,0,0,0.30103,2.361728,2.361728,1.857332,1.623249,2.531479,0.778151,0.477121,0.69897,0.30103,0.60206,0.845098,no
1.380211,0,1.740363,1.716003,1.78533,1.491362,0.477121,0,0,0.30103,2.091667,2.361728,1.607455,1.623249,2.531479,0.778151,0.477121,0.477121,0.30103,0.477121,0.778151,no
1.799341,0,2.068186,1.778151,2.139879,1.210051,1,0.60206,0.123852,0.60206,2.434745,2.951823,1.802363,0.90309,1.778151,1.079181,0.30103,1.113943,0.69897,0.60206,1.146128,no
2.20412,0.60206,2.294466,2.287802,2.30103,2.002166,0.477121,0,0,0.30103,1.4843,1.643453,1.322219,1.176091,2.531479,0.845098,0.30103,1.041393,0.30103,0.60206,1.851258,no
2.547775,0.69897,2.692847,2.583199,2.744293,2.048442,0.778151,0,0,0.60206,1.158362,1.612784,0.880814,1.30103,1.778151,1.079181,0.30103,1.799341,0.477121,1.113943,1.724276,no
2.800029,1,3.142389,2.436163,3.283979,1.680154,1.623249,0.69897,0.041393,0.778151,2.036269,2.951823,1.481299,0.90309,1.778151,1.672098,0.30103,1.908485,1.612784,1.662758,1.944483,yes
2.155336,0.60206,2.429752,2.120574,2.545307,1.516139,1.079181,0.778151,0.161368,0.477121,2.187267,3.088136,1.51375,0,1.886491,0.90309,0.30103,1.633468,0.30103,1.176091,1.431364,no
1.716003,0.30103,1.90309,1.90309,1.90309,1.90309,0.30103,0,0,0.30103,1.662758,1.662758,1.462398,1.361728,2.531479,0.845098,0.477121,0.90309,0.477121,0.845098,0.954243,no
2.1959,0,2.374748,2.178977,2.423246,1.531479,0.954243,0.477121,0.09691,0.69897,1.584105,2.10721,1.255273,1.361728,1.778151,1.113943,0.477121,1.39794,0.60206,1.342423,1.477121,no
2.955688,1,3.054613,3.053078,3.054996,2.454082,0.69897,0,0,0.477121,1.893484,2.361728,1.480725,1.176091,1.778151,2.290035,0.30103,1.414973,0.778151,1.113943,2.564666,no
2.068186,0.30103,2.247973,2.206826,2.269513,1.674402,0.69897,0.30103,0.09691,0.477121,1.993436,2.361728,1.559308,1.623249,1.778151,1.39794,0.30103,1.20412,0.477121,1,1.50515,no
1.342423,0.30103,1.70757,1.447158,1.770852,0.968016,0.90309,0.477121,0.11059,0.60206,2.646404,2.951823,1.953566,2.481443,2.123852,0.477121,0.30103,0.477121,0,0,0.69897,no
2.103804,0.90309,2.298853,2.217484,2.334454,1.396025,1,0.477121,0.08636,0.60206,2.571837,2.951823,1.890868,1.230449,1.886491,1.230449,0.30103,1.255273,0.477121,0.69897,1.556303,no
1.672098,0.30103,1.959041,1.799341,2.004321,1.130334,0.954243,0.30103,0.053078,0.60206,2.619093,2.951823,1.930694,1.934498,1.886491,1,0.30103,0.778151,0.477121,0.477121,1.079181,no
2.540329,1.361728,2.870989,2.488551,2.986324,1.240799,1.778151,1.342423,0.133539,0.845098,1.849051,2.951823,1.338058,0,1.778151,1.579784,0.477121,1.623249,1.39794,0.954243,1.653213,no
1.995635,0.30103,2.184691,2.130334,2.230449,1.400365,0.90309,0.30103,0.056905,0.477121,2.130784,2.786751,1.499275,0,1.886491,1.230449,0.477121,0.778151,0.60206,1,1.414973,no
2.09691,0,2.276462,2.214844,2.324282,1.435367,0.954243,0.477121,0.09691,0.477121,2.070038,2.786751,1.453012,0,1.886491,1.230449,0.477121,1.30103,0.778151,0.954243,1.39794,no
2.113943,0,2.472756,2.240549,2.614897,1.624282,1.041393,0.30103,0.041393,0.477121,2.021189,2.786751,1.444045,0,1.886491,1.342423,0.477121,0.845098,1.491362,0.954243,1.612784,no
2.053078,0,2.404834,2.10721,2.537819,1.327155,1.255273,0.69897,0.093422,0.69897,2.344156,2.951823,1.68601,0,1.778151,1.30103,0.477121,1.230449,0.778151,0.954243,1.477121,no
2.30963,0.845098,2.444045,2.184691,2.463893,1.477121,1.041393,0.69897,0.146128,0.69897,1.419956,1.799341,1.041393,0,0.30103,1.518514,0.477121,1.70757,0.30103,1.230449,1.799341,no
2.143015,0.30103,2.968016,2.662758,3.219585,1.811106,1.431364,0.69897,0.060698,0.69897,2.204527,2.951823,1.552547,0,1.886491,1.556303,0.30103,1.079181,2,1.146128,1.812913,no
2.511883,0.69897,2.802774,1.838849,2.943495,1.320769,1.653213,1.113943,0.103804,0.778151,2.016741,2.951823,1.424718,0,1.778151,1.653213,0.30103,1.819544,1.845098,1.431364,2.113943,no
2.424882,0,2.593286,2.447158,2.673942,1.604766,1.113943,0.60206,0.09691,0.477121,1.950997,2.786751,1.358506,0,1.886491,1.39794,0.60206,1.380211,1.041393,1.20412,1.954243,no
2.40824,0.30103,2.565848,2.434569,2.638489,1.50515,1.176091,0.60206,0.082785,0.477121,1.977083,2.786751,1.37767,0,1.886491,1.361728,0.60206,1.322219,1.176091,1.176091,1.934498,no
2,0,2.303196,2.143015,2.426511,1.485153,1,0.60206,0.123852,0.477121,2.032981,2.786751,1.434888,0,1.886491,1.146128,0.477121,1,0.778151,1,1.322219,no
2.41162,0,2.559907,2.431364,2.62634,1.558349,1.113943,0.60206,0.09691,0.477121,1.950997,2.786751,1.358506,0,1.886491,1.361728,0.60206,1.431364,0.778151,1.255273,1.934498,no
2.416641,0.30103,2.558709,2.439333,2.620136,1.552303,1.113943,0.60206,0.09691,0.477121,1.950997,2.786751,1.358506,0,1.886491,1.380211,0.60206,1.414973,1.113943,1.20412,1.939519,no
2.428135,0,2.570543,2.448706,2.631444,1.529559,1.146128,0.60206,0.089905,0.477121,1.94939,2.786751,1.364551,0,1.886491,1.39794,0.60206,1.39794,1.176091,1.20412,1.954243,no
2.570543,1.255273,2.643453,2.638489,2.64836,2.173186,0.60206,0,0,0.30103,1.522835,1.799341,1.090963,0,2.531479,1.342423,0.477121,1.60206,0.954243,1.146128,2.10721,no
2.089905,0.30103,2.418301,1.924279,2.542825,1.207634,1.380211,0.845098,0.100371,0.69897,2.229118,2.951823,1.59151,0,1.041393,1.491362,0.477121,0.477121,1.361728,0.69897,1.518514,no
1.113943,0,1.819544,1.30103,1.963788,0.96708,1.079181,0.60206,0.103804,0.60206,2.499934,2.951823,1.822495,1.973128,1.886491,0.845098,0.477121,0,0.845098,0.60206,0.845098,no
1.591065,0,1.908485,1.908485,1.908485,1.908485,0.30103,0,0,0.30103,1.929419,1.929419,1.431364,2.320146,2.531479,0.90309,0.477121,0.778151,0.477121,0.954243,0.90309,no
1.869232,0.60206,2.227887,2.227887,2.227887,2.227887,0.30103,0,0,0.30103,1.929419,1.929419,1.431364,2.320146,2.531479,1.146128,0.69897,0.90309,0.69897,0.845098,1.255273,no
3.015779,1.255273,3.165541,3.165541,3.165541,3.165541,0.30103,0,0,0.30103,1.929419,1.929419,1.431364,2.320146,2.531479,1.431364,1,2.053078,0.69897,1.322219,2.369216,no
2.469822,1.113943,2.662758,2.662758,2.662758,2.662758,0.30103,0,0,0.30103,1.929419,1.929419,1.431364,2.320146,2.531479,1.342423,0.30103,1.60206,0.69897,0.60206,2.041393,no
1.672098,0,1.919078,1.913814,1.963788,1.667453,0.477121,0,0,0.477121,1.832509,1.929419,1.322219,1.973128,1.886491,0.954243,0.477121,0.90309,0.778151,0.69897,1.079181,no
1.799341,0.778151,1.963788,1.963788,1.963788,1.963788,0.30103,0,0,0.30103,1.929419,1.929419,1.431364,2.320146,2.531479,0.90309,0.30103,1.255273,0.69897,0.954243,1.113943,no
2.033424,0,2.298853,2.167317,2.392697,1.299289,1.146128,0.60206,0.089905,0.477121,1.99189,2.786751,1.391288,0,1.886491,1.278754,0.477121,1.146128,1.113943,1.041393,1.50515,no
2.167317,0.69897,2.311754,2.133539,2.332438,1.443263,0.954243,0.60206,0.139879,0.60206,1.475381,1.799341,1.079181,0,1.778151,1.447158,0.477121,1.447158,0.69897,1.176091,1.653213,no
2.285557,0.30103,2.465383,2.149219,2.521138,1.391641,1.176091,0.845098,0.155336,0.69897,1.387923,1.799341,1.052694,0,0.30103,1.544068,0.477121,1.568202,0.778151,1.041393,1.732394,no
1.770852,0.30103,1.991226,1.991226,2.033424,1.736397,0.477121,0,0,0.30103,2.130334,2.143015,1.618048,2.356026,2.531479,1.041393,0.30103,1.176091,0.954243,0.60206,1.176091,no
1.322219,0,1.80618,1.447158,1.908485,1.094471,0.90309,0,0,0.60206,2.650589,2.951823,1.959709,2.424882,2.123852,0.477121,0.30103,0.69897,0.477121,0.778151,0.60206,no
1.623249,0.60206,1.892095,1.851258,1.929419,1.25042,0.778151,0,0,0.30103,1.597695,2.10721,1.158362,2.11059,2.531479,0.845098,0.30103,1.079181,0.69897,1.041393,0.954243,no
1.568202,0,1.851258,1.812913,1.892095,1.306425,0.69897,0,0,0.30103,2.332943,2.786751,1.696793,2.40654,2.531479,0.477121,0.30103,1.230449,0.477121,0.90309,0.845098,no
1.724276,0.30103,2.11059,1.716003,2.255273,1.16938,1.146128,0.60206,0.089905,0.60206,2.426137,2.951823,1.759366,0.845098,2.123852,0.477121,0.30103,1.342423,0.60206,1.146128,1.041393,no
1.414973,0,1.69897,1.69897,1.69897,1.69897,0.30103,0,0,0.30103,2.10721,2.10721,1.544068,2.424882,2.531479,0.60206,0.30103,0.954243,0.69897,0.69897,0.778151,no
1.20412,0,1.80618,1.447158,1.934498,1.06558,0.954243,0,0,0.60206,2.598659,2.951823,1.909823,2.11059,2.123852,0.477121,0.30103,0.60206,0.477121,0.845098,0.477121,no
1.778151,0.30103,2.404834,2.269513,2.621176,1.848189,0.845098,0,0,0.60206,2.611543,2.951823,1.951823,1.934498,1.886491,1.041393,0.30103,1.113943,1.146128,0.477121,1.176091,no
1.799341,0.30103,2.44248,1.90309,2.650308,1.347135,1.342423,0.90309,0.123852,0.69897,2.227527,2.951823,1.595827,1.934498,1.886491,1,0.30103,1.079181,0.30103,0.778151,1.146128,no
1.792392,0.30103,2.390935,2.167317,2.600973,1.570309,1.079181,0.30103,0.037426,0.60206,2.483002,2.951823,1.817764,2.394452,2.123852,1.079181,0.30103,1.176091,0.60206,0.60206,1.20412,no
1.770852,0.30103,2.380211,2.252853,2.592177,1.819544,0.845098,0,0,0.477121,2.617,2.951823,1.943643,2.394452,2.518514,1.041393,0.30103,1.176091,0.60206,0.60206,1.176091,no
1.20412,0.30103,1.716003,1.278754,1.80618,0.863323,1.041393,0.69897,0.146128,0.60206,2.268578,2.850646,1.690196,1.322219,1.886491,0.30103,0.30103,0,0,0,0.30103,no
1,0,1.544068,1.278754,1.60206,0.817565,0.90309,0.30103,0.056905,0.477121,2.675127,2.951823,1.982904,2.481443,2.518514,0,0.30103,0,0,0,0,no
0.954243,0.30103,1.544068,1.278754,1.60206,0.817565,0.90309,0.30103,0.056905,0.477121,2.675127,2.951823,1.982904,2.481443,2.518514,0,0.30103,0,0,0,0,no
1.838849,0.845098,2.053078,1.982271,2.079181,1.487845,0.69897,0.30103,0.09691,0.60206,2.523746,2.850646,1.845098,2.365488,1.886491,1.041393,0.30103,0.90309,0.477121,0.477121,1.322219,no
3.095169,1.78533,3.34811,3.211654,3.358886,2.131458,1.255273,0.69897,0.093422,0.69897,2.30129,2.951823,1.654946,1.477121,1.792392,1.995635,0.30103,1.954243,1.113943,1.079181,2.510545,no
2.209515,1.556303,2.549003,2.549003,2.549003,2.549003,0.30103,0,0,0.30103,1.556303,1.556303,1.176091,1.934498,2.531479,0.845098,0.30103,1.361728,0.30103,0.60206,1.518514,no
1.531479,0.30103,1.908485,1.544068,1.977724,1.017033,1.041393,0.69897,0.146128,0.477121,2.450557,2.951823,1.812913,1.623249,2.518514,0.60206,0.30103,0.954243,0.90309,0.69897,0.778151,no
2.0086,0.954243,2.326336,1.80618,2.462398,1.231979,1.278754,0.69897,0.08636,0.69897,2.436163,3.088136,1.728841,1.113943,1.176091,1.113943,0.30103,1.431364,0.954243,0.845098,1.278754,no
1.477121,0.60206,1.819544,1.672098,1.826075,1.361728,0.60206,0,0,0.477121,2.86845,2.951823,2.170262,2.481443,2.518514,0.30103,0.30103,1.146128,0,0,0.845098,no
1.732394,0.69897,1.982271,1.60206,2.089905,1.210853,0.954243,0,0,0.60206,2.489958,2.951823,1.838093,1.748188,1.886491,0.90309,0.30103,1.176091,0.778151,0.30103,1.176091,no
1.69897,0.30103,1.959041,1.643453,2,1.079181,1,0.30103,0.045323,0.60206,2.572221,2.951823,1.885248,1.934498,1.886491,1.041393,0.30103,1.113943,1,0.60206,1.113943,no
1.20412,0.477121,1.623249,1.431364,1.662758,1.371068,0.477121,0,0,0.30103,2.08636,2.361728,1.591065,1.623249,2.531479,0.60206,0.30103,0,0.477121,0.477121,0.60206,no
1.255273,0.30103,1.30103,1.30103,1.361728,1.361728,0.30103,0,0,0.30103,2.361728,2.361728,1.857332,1.623249,2.531479,0.60206,0.30103,0.778151,1,0.69897,0.60206,no
1.146128,0.60206,1.662758,1.278754,1.716003,0.824126,1,0.477121,0.08636,0.477121,2.575834,2.951823,1.894538,2.481443,2.518514,0.30103,0.30103,0.30103,0,0.30103,0.30103,no
2.037426,0.90309,2.227887,1.838849,2.227887,1.539076,0.778151,0.477121,0.146128,0.30103,1.772322,2.361728,1.372912,1,2.531479,1.113943,0.30103,1.380211,0.69897,0.60206,1.30103,no
1.380211,0.30103,2.193125,1.908485,2.418301,1.526727,0.954243,0,0,0.60206,2.491894,2.951823,1.84042,1.934498,1.886491,0.60206,0.30103,0.477121,0.30103,0.69897,0.60206,no
1.579784,0.30103,1.857332,1.812913,1.886491,1.420451,0.60206,0.30103,0.123852,0.477121,1.135769,1.50515,0.90309,0.845098,1.778151,1,0.30103,1.146128,0.30103,0.60206,1,no
2.1959,1.322219,2.485721,1.672098,2.557507,1.171726,1.431364,0.845098,0.089905,0.69897,2.229375,2.951823,1.636989,0,1.886491,1.414973,0.30103,1.518514,1.732394,0.90309,1.633468,no
1.991226,1.113943,2.25042,2.25042,2.25042,2.25042,0.30103,0,0,0.30103,1.146128,1.146128,1.041393,1,2.531479,1.322219,0.30103,1.477121,0.477121,0.69897,1.380211,no
1.924279,0.69897,2.155336,1.968483,2.217484,1.240549,1.041393,0.477121,0.079181,0.477121,2.577262,3.088136,1.881955,1.113943,2.518514,1.113943,0.30103,1.322219,0.69897,0.845098,1.30103,no
1.361728,0.30103,1.690196,1.462398,1.70757,1.041393,0.778151,0.30103,0.079181,0.477121,2.840232,3.088136,2.079904,1.113943,2.518514,0.477121,0.30103,1.041393,0.30103,0.60206,0.60206,no
0.954243,0,1.50515,1.278754,1.531479,0.812913,0.845098,0.30103,0.068186,0.60206,2.769134,3.088136,2.014226,1.113943,1.886491,0.30103,0.60206,0.30103,0,0.477121,0.30103,no
2.1959,0.60206,2.49693,2.184691,2.630428,1.392169,1.278754,0.69897,0.08636,0.778151,2.384407,3.088136,1.712313,1.113943,1.778151,0.778151,0.477121,1.113943,0.477121,1,0.90309,no
1.799341,0.477121,2.33646,1.556303,2.532754,1.235276,1.342423,0.60206,0.056905,0.60206,2.402055,3.088136,1.700617,1.113943,2.123852,0.954243,0.60206,1.041393,0.90309,1.278754,1.20412,no
2.40654,1.079181,2.798651,2.437751,2.928396,1.759441,1.20412,0.69897,0.103804,0.477121,2.510987,3.088136,1.791901,0,2.518514,1.278754,0.477121,1.462398,0.30103,1.176091,1.778151,no
2.426511,0.778151,2.662758,2.448706,2.764923,1.730944,1.079181,0.778151,0.161368,0.30103,2.13149,3.088136,1.361728,0,2.531479,1.544068,0.30103,1.69897,0.69897,1.431364,1.845098,no
2.283301,0.778151,2.477121,2.378398,2.552668,1.780533,0.845098,0.477121,0.123852,0.30103,2.366423,3.088136,1.525045,0,2.531479,1.20412,0.477121,1.041393,0.60206,1.255273,1.380211,no
2.374748,1.30103,2.863323,2.167317,3.065953,1.467904,1.623249,0.954243,0.079181,0.60206,2.176439,3.088136,1.509068,0,2.123852,1.278754,0.477121,1.491362,1.146128,1.342423,2.041393,no
2.257679,0.954243,2.591065,2.264818,2.7348,1.448706,1.322219,0.778151,0.09691,0.477121,2.427486,3.088136,1.725503,0,2.518514,1.176091,0.60206,1.361728,0.69897,1.230449,1.431364,no
1.662758,0.69897,2.214844,2.079181,2.403121,1.37858,1.079181,0.845098,0.190332,0.30103,2.15005,3.088136,1.388279,0,2.531479,0.90309,0.60206,0.90309,0.60206,1.380211,1,no
1.819544,0.477121,2.371068,1.832509,2.568202,1.137354,1.477121,0.845098,0.082785,0.60206,2.294841,3.088136,1.613102,1.113943,2.123852,1.113943,0.477121,0.954243,1.176091,1.041393,1.20412,no
1.591065,0.477121,2.4133,1.880814,2.64836,1.147985,1.544068,0.954243,0.093422,0.60206,2.223704,3.088136,1.550962,0,2.123852,1.041393,0.30103,0.477121,1.716003,1.146128,1.041393,no
1.079181,0.30103,1.662758,1.623249,1.770852,1.028164,0.845098,0.30103,0.068186,0.477121,2.791571,3.088136,2.047275,1.113943,2.518514,0.477121,0.30103,0,0.30103,0.778151,0.477121,no
2.451786,1.041393,2.845718,2.416641,3.007748,1.5027,1.531479,1,0.103804,0.60206,2.267946,3.088136,1.611192,0,1.792392,1.20412,0.60206,1.518514,0.60206,1.39794,1.633468,no
1.892095,0.60206,2.482874,1.778151,2.692847,1.144574,1.591065,1.113943,0.120574,0.69897,2.210853,3.088136,1.554368,1.113943,1.041393,1.20412,0.477121,1.079181,1.041393,1.146128,1.30103,no
2.029384,0.60206,2.392697,2.068186,2.542825,1.244772,1.342423,0.778151,0.093422,0.60206,2.402227,3.088136,1.705949,1,1.886491,1.176091,0.477121,1.230449,0.90309,1.230449,1.39794,no
1.716003,0.477121,2.494155,1.845098,2.733999,1.338656,1.431364,0.69897,0.060698,0.60206,2.313551,3.088136,1.620864,1.113943,2.123852,0.778151,0.60206,1.079181,0.778151,1.230449,1,no
1.732394,0.477121,2.178977,2.056905,2.332438,1.394101,1,0.60206,0.123852,0.30103,2.28979,3.088136,1.535674,1.113943,2.531479,0.90309,0.60206,1,0.69897,1.278754,1.041393,no
1.724276,0.778151,2.267172,1.908485,2.454845,1.273001,1.230449,0.60206,0.075547,0.60206,2.499948,3.088136,1.780893,0,1.886491,0.954243,0.60206,0.90309,0.69897,1.230449,1.041393,no
1.414973,0,1.755875,1.69897,1.799341,1.217484,0.69897,0,0,0.30103,2.529238,3.088136,1.718086,1.113943,2.531479,0.69897,0.69897,0.778151,0.778151,0.778151,0.845098,no
1.50515,0,2.292256,1.90309,2.525045,1.227887,1.342423,0.90309,0.123852,0.477121,2.404423,3.088136,1.69897,0,2.518514,0.778151,0.60206,0.845098,0.69897,1.20412,0.845098,no
1.662758,0.477121,2.117271,1.681241,2.274158,1.079181,1.255273,0.69897,0.093422,0.477121,2.472244,3.088136,1.757244,0,2.518514,0.90309,0.60206,0.69897,0.60206,1.113943,1.079181,no
1.70757,0,2.049218,1.959041,2.149219,1.462398,0.778151,0.30103,0.079181,0.30103,2.457276,3.088136,1.625312,1.113943,2.531479,0.845098,0.60206,1.041393,0.69897,1.230449,0.954243,no
1.491362,0,1.740363,1.732394,1.748188,1.286232,0.60206,0,0,0.30103,2.625312,3.088136,1.745621,1.113943,2.531479,0.60206,0.69897,0.69897,0.60206,0.69897,0.845098,no
1.763428,0.778151,2.093422,1.954243,2.198657,1.43409,0.845098,0.30103,0.068186,0.30103,2.392398,3.088136,1.575996,0,2.531479,1.041393,0.477121,0.954243,0.778151,1.113943,1.113943,no
1.763428,0.30103,2.139879,2.060698,2.276462,1.509606,0.845098,0.477121,0.123852,0.477121,2.381422,3.088136,1.548144,0,1.886491,1,0.60206,0.90309,0.69897,1,1.113943,no
1.30103,0,1.643453,1.643453,1.643453,1.352183,0.477121,0,0,0.30103,2.796921,3.088136,1.897627,1.113943,2.531479,0.60206,0.69897,0.69897,0.60206,0.60206,0.60206,no
2.053078,1.176091,2.240549,2.240549,2.240549,2.240549,0.30103,0,0,0.30103,1.799341,1.799341,1.230449,0,2.531479,1.146128,0.30103,1.462398,0.60206,1.230449,1.477121,no
1.812913,0.30103,1.986772,1.986772,1.986772,1.986772,0.30103,0,0,0.30103,1.799341,1.799341,1.230449,0,2.531479,1.113943,0.477121,0.845098,1,1,1.146128,no
1.477121,0,2.037426,1.556303,2.201397,1.089552,1.176091,0.477121,0.056905,0.477121,2.556737,3.088136,1.834357,1.113943,2.518514,1,0.477121,0.477121,1.30103,1.176091,1,no
1.838849,0.30103,2.212188,1.80618,2.357935,1.299289,1.113943,0.30103,0.033424,0.477121,2.592177,3.088136,1.856306,1.113943,2.518514,0.954243,0.60206,1.079181,0.30103,1.278754,0.954243,no
1.380211,0.477121,2.133539,1.819544,2.352183,1.369216,1.041393,0,0,0.477121,2.662286,3.088136,1.925828,1.113943,2.518514,0.477121,0.69897,0.477121,0,0.954243,0.477121,no
1.39794,0.30103,2.167317,1.812913,2.390935,1.366796,1.079181,0,0,0.477121,2.62155,3.088136,1.886998,1.113943,2.518514,0.477121,0.69897,0.477121,0,0.954243,0.477121,no
1.832509,0,2.222716,1.792392,2.374748,1.31534,1.113943,0.30103,0.033424,0.477121,2.592177,3.088136,1.856306,1.113943,2.518514,0.90309,0.60206,1.079181,0.30103,1.30103,0.90309,no
1.380211,0.30103,1.653213,1.653213,1.653213,1.361728,0.477121,0,0,0.30103,2.793092,3.088136,1.897627,1.113943,2.531479,0.477121,0.60206,0.477121,0,0.778151,0.69897,no
1.380211,0,1.643453,1.643453,1.643453,1.352183,0.477121,0,0,0.30103,2.793092,3.088136,1.897627,1.113943,2.531479,0.30103,0.69897,0,0,0.69897,0.30103,no
1.380211,0,1.653213,1.653213,1.653213,1.361728,0.477121,0,0,0.30103,2.793092,3.088136,1.897627,1.113943,2.531479,0.30103,0.69897,0,0,0.69897,0.30103,no
1.380211,0,1.653213,1.653213,1.653213,1.361728,0.477121,0,0,0.30103,2.793092,3.088136,1.897627,1.113943,2.531479,0.30103,0.69897,0,0,0.69897,0.30103,no
1.748188,0,2.120574,1.748188,2.252853,1.199481,1.113943,0.477121,0.068186,0.477121,2.604766,3.088136,1.865814,1.113943,2.518514,0.954243,0.60206,0.69897,0.477121,1.230449,0.954243,no
1.477121,0,1.913814,1.414973,2.033424,0.996512,1.113943,0.30103,0.033424,0.477121,2.611011,3.088136,1.874598,1.113943,2.518514,0.477121,0.69897,0.30103,0,1.079181,0.60206,no
1.778151,0.60206,1.973128,1.875061,1.986772,1.39794,0.69897,0,0,0.30103,2.549922,3.088136,1.70757,1.113943,2.531479,0.90309,0.69897,0.60206,0,1.230449,1.041393,no
1.591065,0.30103,1.934498,1.579784,2.037426,1.161368,0.954243,0,0,0.60206,2.683047,3.088136,1.933892,1.113943,2.123852,0.477121,0.60206,0.90309,0.30103,1.146128,0.60206,no
1.716003,0.30103,2.113943,1.70757,2.257679,1.171726,1.146128,0.477121,0.060698,0.477121,2.573231,3.088136,1.842235,1.113943,2.518514,0.845098,0.60206,0.778151,0,1.230449,0.845098,no
1.70757,0.30103,2.089905,1.69897,2.227887,1.176091,1.113943,0.477121,0.068186,0.477121,2.601245,3.088136,1.865282,1.113943,2.518514,0.845098,0.60206,0.778151,0,1.20412,0.845098,no
1.70757,0.30103,2.093422,1.69897,2.230449,1.178401,1.113943,0.477121,0.068186,0.477121,2.604766,3.088136,1.865814,1.113943,2.518514,0.845098,0.60206,0.778151,0,1.20412,0.845098,no
1.716003,0.30103,2.117271,1.690196,2.264818,1.178401,1.146128,0.477121,0.060698,0.477121,2.573231,3.088136,1.842235,1.113943,2.518514,0.845098,0.60206,0.778151,0,1.230449,0.845098,no
1.740363,0.30103,1.913814,1.913814,1.913814,1.618048,0.477121,0.30103,0.176091,0.30103,2.789933,3.088136,1.877947,1.113943,2.531479,0.845098,0.60206,0.778151,0,1.041393,0.954243,no
1.70757,0.30103,2.093422,1.69897,2.230449,1.178401,1.113943,0.477121,0.068186,0.477121,2.604766,3.088136,1.865814,1.113943,2.518514,0.845098,0.60206,0.778151,0,1.20412,0.845098,no
1.716003,0.30103,2.089905,1.724276,2.222716,1.206556,1.079181,0.30103,0.037426,0.477121,2.634387,3.088136,1.896636,1.113943,2.518514,0.845098,0.60206,0.778151,0,1.230449,0.845098,no
1.70757,0.30103,2.089905,1.69897,2.225309,1.173769,1.113943,0.477121,0.068186,0.477121,2.604766,3.088136,1.865814,1.113943,2.518514,0.845098,0.60206,0.778151,0,1.20412,0.845098,no
1.716003,0.30103,2.10721,1.70757,2.247973,1.195069,1.113943,0.477121,0.068186,0.477121,2.604766,3.088136,1.865814,1.113943,2.518514,0.845098,0.60206,0.778151,0,1.230449,0.845098,no
1.748188,0.30103,2.120574,1.740363,2.257679,1.20412,1.113943,0.477121,0.068186,0.477121,2.604766,3.088136,1.865814,1.113943,2.518514,0.845098,0.60206,0.778151,0,1.230449,0.954243,no
1.518514,0,1.880814,1.477121,1.973128,1.101403,0.954243,0,0,0.477121,2.747606,3.088136,1.996205,1.113943,2.518514,0.477121,0.60206,0.778151,0,1.079181,0.477121,no
1.477121,0,1.724276,1.724276,1.724276,1.431364,0.477121,0,0,0.30103,2.801404,3.088136,1.90309,1.113943,2.531479,0.477121,0.60206,0.69897,0,0.778151,0.60206,no
1.70757,0.30103,2.123852,1.69897,2.262451,1.20871,1.113943,0.477121,0.068186,0.477121,2.604766,3.088136,1.865814,1.113943,2.518514,0.845098,0.60206,0.69897,0,1.230449,0.845098,no
1.812913,0.60206,1.995635,1.995635,1.995635,1.69897,0.477121,0,0,0.30103,2.803457,3.088136,1.911158,1.113943,2.531479,0.954243,0.60206,0.778151,0,1.113943,1.079181,no
1.69897,0.30103,2.130334,1.681241,2.276462,1.159266,1.176091,0.477121,0.056905,0.477121,2.544329,3.088136,1.814314,1.113943,2.518514,0.845098,0.60206,0.69897,0,1.20412,0.845098,no
1.812913,0.60206,1.995635,1.995635,1.995635,1.69897,0.477121,0,0,0.30103,2.803457,3.088136,1.911158,1.113943,2.531479,0.954243,0.60206,0.778151,0,1.113943,1.079181,no
1.70757,0.30103,2.117271,1.70757,2.252853,1.167022,1.146128,0.30103,0.033424,0.60206,2.559811,3.088136,1.828531,1.113943,0.30103,0.845098,0.60206,0.69897,0,1.20412,0.845098,no
1.812913,0.60206,1.995635,1.995635,1.995635,1.69897,0.477121,0,0,0.30103,2.803457,3.088136,1.911158,1.113943,2.531479,0.954243,0.60206,0.778151,0,1.113943,1.079181,no
1.70757,0.30103,2.123852,1.69897,2.262451,1.20871,1.113943,0.477121,0.068186,0.477121,2.604766,3.088136,1.865814,1.113943,2.518514,0.845098,0.60206,0.69897,0,1.230449,0.845098,no
1.812913,0.60206,1.995635,1.995635,1.995635,1.69897,0.477121,0,0,0.30103,2.803457,3.088136,1.911158,1.113943,2.531479,0.954243,0.60206,0.778151,0,1.113943,1.079181,no
1.39794,0,1.819544,1.380211,1.929419,1.060698,0.954243,0,0,0.60206,2.683047,3.088136,1.933892,1.113943,2.123852,0.477121,0.60206,0.477121,0,1.041393,0.477121,no
1.643453,0,1.819544,1.819544,1.819544,1.819544,0.30103,0,0,0.30103,0.69897,0.69897,0.69897,0,2.531479,0.477121,0.60206,0.69897,0,0.90309,0.60206,no
1.643453,0,1.812913,1.812913,1.812913,1.812913,0.30103,0,0,0.30103,0.60206,0.60206,0.60206,0,2.531479,0.477121,0.60206,0.69897,0,0.90309,0.60206,no
2.184691,1.462398,2.290035,2.290035,2.290035,1.991226,0.477121,0,0,0.477121,2.79134,3.088136,1.883661,1.113943,0.30103,0.477121,0.60206,0.778151,0,1.361728,1.278754,no
2.025306,1.255273,2.149219,2.149219,2.149219,1.851258,0.477121,0,0,0.477121,2.79134,3.088136,1.883661,1.113943,0.30103,0.477121,0.60206,0.778151,0,1.20412,1.176091,no
2.324282,1.643453,2.414973,2.414973,2.414973,2.115611,0.477121,0,0,0.477121,2.79134,3.088136,1.883661,1.113943,0.30103,0.477121,0.60206,0.778151,0,1.462398,1.447158,no
2.004321,1.176091,2.152288,2.152288,2.152288,1.854306,0.477121,0,0,0.477121,2.788875,3.088136,1.875061,1.113943,1.778151,0.477121,0.60206,0.954243,0,1.255273,1.176091,no
1.724276,0,1.924279,1.826075,1.944483,1.356981,0.69897,0.30103,0.09691,0.30103,2.5302,3.088136,1.665112,1.113943,2.531479,0.60206,0.60206,0.845098,0,1,0.954243,no
1.662758,0,1.857332,1.857332,1.857332,1.857332,0.30103,0,0,0.30103,1.50515,1.50515,1.176091,0.845098,2.531479,0.477121,0.60206,0.90309,0,0.954243,0.778151,no
1.531479,0,1.778151,1.653213,1.80618,1.224015,0.69897,0.30103,0.09691,0.30103,2.5302,3.088136,1.665112,1.113943,2.531479,0.477121,0.60206,0.60206,0,0.90309,0.60206,no
1.462398,0.30103,2.017033,1.579784,2.178977,1.165541,1.079181,0.30103,0.037426,0.477121,2.625498,3.088136,1.886491,1.113943,2.518514,0.778151,0.477121,0.30103,1.447158,1.20412,0.778151,no
1.531479,0,1.748188,1.748188,1.748188,1.454845,0.477121,0.30103,0.176091,0.477121,2.797614,3.088136,1.900367,1.113943,1.778151,0.477121,0.60206,0.60206,0,0.954243,0.60206,no
1.531479,0,1.755875,1.755875,1.755875,1.462398,0.477121,0.30103,0.176091,0.477121,2.797614,3.088136,1.900367,1.113943,1.778151,0.477121,0.60206,0.60206,0,0.954243,0.60206,no
1.579784,0,1.792392,1.792392,1.792392,1.498311,0.477121,0.30103,0.176091,0.477121,2.797614,3.088136,1.900367,1.113943,1.778151,0.477121,0.60206,0.778151,0,0.90309,0.69897,no
1.568202,0,1.78533,1.78533,1.78533,1.491362,0.477121,0.30103,0.176091,0.477121,2.797614,3.088136,1.900367,1.113943,1.778151,0.477121,0.60206,0.778151,0,0.90309,0.69897,no
1.544068,0,1.799341,1.70757,1.80618,1.342423,0.60206,0,0,0.30103,2.648038,3.088136,1.748188,1.113943,2.531479,0.477121,0.60206,0.69897,0,0.90309,0.60206,no
1.544068,0,1.799341,1.70757,1.80618,1.342423,0.60206,0,0,0.30103,2.648038,3.088136,1.748188,1.113943,2.531479,0.477121,0.60206,0.69897,0,0.90309,0.60206,no
1.544068,0,1.799341,1.70757,1.80618,1.342423,0.60206,0,0,0.30103,2.648038,3.088136,1.748188,1.113943,2.531479,0.477121,0.60206,0.69897,0,0.90309,0.60206,no
1.531479,0,1.792392,1.70757,1.799341,1.335859,0.60206,0,0,0.30103,2.648038,3.088136,1.748188,1.113943,2.531479,0.477121,0.60206,0.69897,0,0.90309,0.60206,no
1.544068,0,1.799341,1.70757,1.80618,1.342423,0.60206,0,0,0.477121,2.649013,3.088136,1.748188,1.113943,1.778151,0.477121,0.60206,0.69897,0,0.90309,0.60206,no
1.531479,0,1.792392,1.70757,1.799341,1.335859,0.60206,0,0,0.477121,2.649013,3.088136,1.748188,1.113943,1.778151,0.477121,0.60206,0.69897,0,0.90309,0.60206,no
1.531479,0,1.792392,1.70757,1.799341,1.335859,0.60206,0,0,0.477121,2.649013,3.088136,1.748188,1.113943,1.778151,0.477121,0.60206,0.69897,0,0.90309,0.60206,no
1.556303,0,1.80618,1.716003,1.812913,1.348889,0.60206,0,0,0.477121,2.649013,3.088136,1.748188,1.113943,1.778151,0.477121,0.60206,0.69897,0,0.90309,0.69897,no
1.544068,0,1.799341,1.70757,1.80618,1.342423,0.60206,0,0,0.30103,2.64706,3.088136,1.748188,1.113943,2.531479,0.477121,0.60206,0.69897,0,0.90309,0.60206,no
1.556303,0,1.819544,1.70757,1.832509,1.367915,0.60206,0,0,0.30103,2.647706,3.088136,1.748188,1.113943,2.531479,0.477121,0.60206,0.69897,0,0.90309,0.60206,no
1.531479,0,1.792392,1.70757,1.799341,1.335859,0.60206,0,0,0.477121,2.649013,3.088136,1.748188,1.113943,1.778151,0.477121,0.60206,0.69897,0,0.90309,0.60206,no
1.544068,0,1.799341,1.70757,1.80618,1.342423,0.60206,0,0,0.30103,2.647383,3.088136,1.748188,1.113943,2.531479,0.477121,0.60206,0.69897,0,0.90309,0.60206,no
1.681241,0,1.90309,1.80618,1.913814,1.447158,0.60206,0,0,0.477121,2.647383,3.088136,1.748188,1.113943,1.792392,0.477121,0.60206,0.60206,0,0.90309,0.778151,no
1.544068,0,1.799341,1.70757,1.80618,1.342423,0.60206,0,0,0.30103,2.64706,3.088136,1.748188,1.113943,2.531479,0.477121,0.60206,0.69897,0,0.90309,0.60206,no
1.544068,0,1.799341,1.70757,1.80618,1.342423,0.60206,0,0,0.30103,2.647706,3.088136,1.748188,1.113943,2.531479,0.477121,0.60206,0.69897,0,0.90309,0.60206,no
1.681241,0,1.90309,1.80618,1.913814,1.447158,0.60206,0,0,0.477121,2.647383,3.088136,1.748188,1.113943,1.792392,0.477121,0.60206,0.60206,0,0.90309,0.778151,no
1.414973,0,1.755875,1.662758,1.792392,1.328991,0.60206,0,0,0.477121,2.647383,3.088136,1.75074,1.113943,1.778151,0.477121,0.60206,0.30103,0,0.778151,0.477121,no
1.716003,0,1.908485,1.724276,1.919078,1.452247,0.60206,0,0,0.477121,2.64706,3.088136,1.748188,1.113943,1.792392,0.477121,0.60206,0.69897,0,0.90309,0.69897,no
1.556303,0,1.80618,1.70757,1.812913,1.348889,0.60206,0,0,0.30103,2.647383,3.088136,1.748188,1.113943,2.531479,0.477121,0.60206,0.69897,0,0.90309,0.60206,no
1.60206,0,1.869232,1.70757,1.880814,1.295567,0.69897,0.30103,0.09691,0.30103,2.529559,3.088136,1.650793,1.113943,2.531479,0.477121,0.60206,0.778151,0,0.90309,0.69897,no
1.579784,0,1.819544,1.70757,1.826075,1.361728,0.60206,0,0,0.30103,2.64706,3.088136,1.748188,1.113943,2.531479,0.477121,0.60206,0.69897,0,0.90309,0.60206,no
1.531479,0,1.880814,1.70757,1.959041,1.371068,0.69897,0,0,0.60206,2.525693,3.088136,1.635986,1.113943,1.778151,0.477121,0.60206,0.69897,0,0.90309,0.60206,no
1.556303,0,1.80618,1.70757,1.812913,1.348889,0.60206,0,0,0.30103,2.64706,3.088136,1.748188,1.113943,2.531479,0.477121,0.60206,0.69897,0,0.90309,0.60206,no
1.531479,0,1.799341,1.716003,1.812913,1.348889,0.60206,0,0,0.477121,2.649013,3.088136,1.748188,1.113943,1.778151,0.477121,0.60206,0.69897,0,0.90309,0.60206,no
1.591065,0.30103,1.851258,1.763428,1.869232,1.403635,0.60206,0,0,0.477121,2.64706,3.088136,1.748188,1.113943,1.792392,0.477121,0.60206,0.60206,0,0.954243,0.69897,no
1.50515,0.30103,1.778151,1.690196,1.78533,1.322219,0.60206,0,0,0.477121,2.646727,3.088136,1.745621,1.113943,1.778151,0.477121,0.60206,0.60206,0,0.90309,0.60206,no
1.690196,0.30103,1.897627,1.80618,1.90309,1.43664,0.60206,0,0,0.30103,2.649987,3.088136,1.755875,1.113943,2.531479,0.60206,0.60206,0.69897,0,1.176091,0.845098,no
1.518514,0.30103,1.78533,1.690196,1.792392,1.328991,0.60206,0,0,0.30103,2.64706,3.088136,1.748188,1.113943,2.531479,0.477121,0.60206,0.69897,0,1.113943,0.60206,no
1.591065,0.30103,1.832509,1.740363,1.845098,1.380211,0.60206,0,0,0.30103,2.64706,3.088136,1.748188,1.113943,2.531479,0.477121,0.60206,0.69897,0,0.90309,0.778151,no
1.633468,0.477121,1.869232,1.869232,1.869232,1.574031,0.477121,0,0,0.477121,2.788522,3.088136,1.872156,1.113943,1.792392,0.477121,0.60206,0.845098,0,0.954243,0.778151,no
1.672098,0.69897,1.913814,1.913814,1.929419,1.462398,0.60206,0,0,0.477121,2.655455,3.088136,1.787673,1.113943,1.792392,0.477121,0.60206,0.845098,0,0.954243,0.845098,no
1.778151,0.778151,1.968483,1.90309,1.973128,1.50515,0.60206,0,0,0.477121,2.647706,3.088136,1.748188,1.113943,1.778151,0.477121,0.60206,1.041393,0,0.954243,0.954243,no
1.763428,0.30103,1.944483,1.944483,1.944483,1.64836,0.477121,0,0,0.30103,2.788522,3.088136,1.872156,1.113943,2.531479,0.60206,0.60206,1.146128,0.30103,1,1.146128,no
1.778151,0.778151,1.977724,1.913814,1.982271,1.514149,0.60206,0,0,0.477121,2.647706,3.088136,1.748188,1.113943,1.778151,0.477121,0.60206,1.041393,0,0.954243,0.954243,no
1.869232,0,2.071882,2.021189,2.075547,1.605628,0.60206,0,0,0.30103,2.647383,3.088136,1.75074,1.113943,2.531479,0.477121,0.60206,0.69897,0,0.954243,1.20412,no
1.568202,0.778151,1.819544,1.819544,1.819544,1.525045,0.477121,0,0,0.477121,2.789581,3.088136,1.875061,1.113943,1.778151,0.69897,0.30103,1.146128,0.60206,0.30103,0.954243,no
1.531479,0.30103,1.792392,1.69897,1.799341,1.335859,0.60206,0,0,0.30103,2.64706,3.088136,1.748188,1.113943,2.531479,0.477121,0.60206,0.69897,0,0.90309,0.60206,no
1.724276,0.477121,1.934498,1.869232,1.939519,1.472318,0.60206,0,0,0.30103,2.64836,3.088136,1.755875,1.113943,2.531479,0.60206,0.60206,0.90309,0.30103,0.954243,1,no
1.531479,0,1.799341,1.716003,1.80618,1.342423,0.60206,0,0,0.30103,2.64706,3.088136,1.748188,1.113943,2.531479,0.477121,0.60206,0.69897,0,0.90309,0.60206,no
1.845098,0,2.029384,1.977724,2.029384,1.560265,0.60206,0,0,0.30103,2.64706,3.088136,1.748188,1.113943,2.531479,0.60206,0.60206,0.954243,0.30103,0.954243,1.079181,no
1.50515,0.30103,1.770852,1.690196,1.770852,1.308137,0.60206,0,0,0.30103,2.647383,3.088136,1.748188,1.113943,2.531479,0.477121,0.60206,0.69897,0,1.113943,0.60206,no
1.763428,0.477121,2.029384,1.897627,2.089905,1.498311,0.69897,0.30103,0.09691,0.60206,2.524721,3.088136,1.638489,1.113943,1.778151,0.60206,0.60206,0.90309,0,1,0.954243,no
1.690196,0.30103,1.892095,1.812913,1.892095,1.426023,0.60206,0,0,0.30103,2.649987,3.088136,1.755875,1.113943,2.531479,0.60206,0.60206,0.69897,0,1.176091,0.845098,no
1.591065,0.30103,1.826075,1.748188,1.832509,1.367915,0.60206,0,0,0.30103,2.64706,3.088136,1.748188,1.113943,2.531479,0.477121,0.60206,0.845098,0,0.90309,0.69897,no
1.531479,0,1.799341,1.716003,1.80618,1.342423,0.60206,0,0,0.477121,2.64706,3.088136,1.748188,1.113943,1.792392,0.477121,0.60206,0.60206,0,0.90309,0.60206,no
1.568202,0,1.838849,1.740363,1.845098,1.380211,0.60206,0,0,0.30103,2.64706,3.088136,1.748188,1.113943,2.531479,0.477121,0.60206,0.60206,0,0.90309,0.60206,no
1.875061,0.30103,2.068186,2.021189,2.071882,1.60206,0.60206,0,0,0.30103,2.662758,3.088136,1.775756,1.113943,2.531479,0.60206,0.60206,1,0,1.278754,1.079181,no
1.633468,0.477121,1.869232,1.792392,1.875061,1.409426,0.60206,0,0,0.477121,2.64706,3.088136,1.748188,1.113943,1.792392,0.60206,0.60206,0.90309,0.30103,0.954243,0.845098,no
1.50515,0.30103,1.778151,1.690196,1.78533,1.322219,0.60206,0,0,0.30103,2.64706,3.088136,1.748188,1.113943,2.531479,0.477121,0.60206,0.778151,0,0.90309,0.60206,no
1.732394,0.477121,1.939519,1.875061,1.944483,1.477121,0.60206,0,0,0.30103,2.64836,3.088136,1.755875,1.113943,2.531479,0.60206,0.60206,0.90309,0.30103,0.954243,1,no
1.755875,0.60206,1.973128,1.892095,1.986772,1.39794,0.69897,0.30103,0.09691,0.60206,2.524721,3.088136,1.638489,1.113943,1.778151,0.60206,0.60206,0.90309,0,1,0.954243,no
1.681241,0.30103,1.886491,1.80618,1.886491,1.420451,0.60206,0,0,0.30103,2.649987,3.088136,1.755875,1.113943,2.531479,0.60206,0.60206,0.69897,0,1.176091,0.845098,no
1.653213,0,1.939519,1.748188,2,1.243038,0.845098,0.477121,0.123852,0.477121,2.378089,3.088136,1.539954,1.113943,1.886491,0.477121,0.60206,0.845098,0,1.113943,0.778151,no
1.653213,0,1.875061,1.799341,1.880814,1.414973,0.60206,0,0,0.30103,2.647383,3.088136,1.748188,1.113943,2.531479,0.477121,0.60206,0.778151,0,0.90309,0.778151,no
1.908485,0.30103,2.082785,2.041393,2.082785,1.612784,0.60206,0,0,0.30103,2.647383,3.088136,1.748188,1.113943,2.531479,0.60206,0.60206,1.146128,0.30103,1,1.113943,no
1.792392,0.30103,2.075547,1.880814,2.155336,1.468347,0.778151,0.477121,0.146128,0.477121,2.434569,3.088136,1.568202,1.113943,1.778151,0.477121,0.60206,0.90309,0,0.90309,1.041393,no
1.544068,0,1.826075,1.740363,1.832509,1.367915,0.60206,0,0,0.477121,2.64706,3.088136,1.748188,1.113943,1.792392,0.477121,0.60206,0.69897,0,0.90309,0.60206,no
1.662758,0,1.913814,1.838849,1.939519,1.472318,0.60206,0,0,0.30103,2.647383,3.088136,1.75074,1.113943,2.531479,0.60206,0.60206,0.954243,0.30103,0.954243,0.845098,no
1.50515,0.30103,1.778151,1.690196,1.78533,1.322219,0.60206,0,0,0.30103,2.647383,3.088136,1.748188,1.113943,2.531479,0.477121,0.60206,0.69897,0,1.113943,0.60206,no
1.792392,0.69897,1.995635,1.977724,2.029384,1.439333,0.69897,0,0,0.30103,2.584048,3.088136,1.779957,1.113943,2.531479,0.845098,0.30103,1.079181,0.60206,1.462398,0.954243,no
1.39794,0,1.991226,1.69897,2.161368,1.230449,1,0.30103,0.045323,0.60206,2.703481,3.088136,1.966423,1.113943,2.123852,0.477121,0.30103,1.079181,0.30103,1,0.477121,no
1.39794,0,1.986772,1.724276,2.155336,1.273001,0.954243,0,0,0.60206,2.73759,3.088136,1.991802,1.113943,2.123852,0.477121,0.30103,1.079181,0.30103,1,0.477121,no
3.082067,2.0086,3.515874,3.20085,3.699751,2.359152,1.361728,0.845098,0.103804,0.69897,1.99743,3.088136,1.332438,1.113943,1.778151,1.763428,0.60206,2.378398,0.30103,2.021189,2.519828,no
3.099681,1.544068,3.32531,2.954725,3.40807,1.684576,1.740363,1.20412,0.10721,0.69897,1.772762,3.088136,1.259833,0.845098,0.30103,1.954243,0.477121,2.55145,0.60206,2.332438,2.540329,no
1.255273,0.30103,1.60206,1.60206,1.612784,1.156246,0.60206,0,0,0.477121,2.652894,3.088136,1.770852,1.113943,1.886491,0.30103,0.477121,0.69897,0.30103,0.845098,0.477121,no
1.623249,0,1.826075,1.826075,1.826075,1.531479,0.477121,0,0,0.477121,2.79134,3.088136,1.880814,1.113943,1.886491,0.60206,0.477121,1.255273,0.477121,1.041393,1.041393,no
1.832509,0.477121,2.017033,2.017033,2.017033,1.720159,0.477121,0,0,0.30103,2.797268,3.088136,1.905796,1.113943,2.531479,1.146128,0.477121,0.69897,0.30103,0.845098,1.176091,no
2.765669,1.079181,3.021189,2.685742,3.131298,1.776556,1.380211,0.778151,0.08636,0.477121,2.014856,3.088136,1.395676,0.845098,1.778151,1.832509,0.30103,1.991226,0.477121,1.851258,2.167317,no
2.419956,0.954243,2.711807,2.303196,2.851258,1.606274,1.278754,0.477121,0.045323,0.30103,2.11581,3.088136,1.477989,1.113943,2.531479,1.431364,0.30103,1.531479,1.146128,1.70757,1.716003,no
1.740363,0.30103,1.939519,1.939519,1.939519,1.643453,0.477121,0,0,0.477121,2.830268,3.088136,1.954243,1.113943,1.792392,0.60206,0.477121,1.079181,0.30103,0.954243,1.20412,no
2.32838,0.477121,2.428135,2.222716,2.436163,1.665862,0.845098,0.30103,0.068186,0.30103,2.385016,3.088136,1.625004,1.113943,2.531479,1.278754,0.30103,1.662758,0.60206,1.361728,1.653213,no
2.255273,1,2.526339,2.307496,2.638489,1.742332,0.954243,0.30103,0.053078,0.30103,2.381566,3.088136,1.635986,1.113943,2.531479,1.361728,0.477121,1.431364,0.30103,1.681241,1.39794,no
2.80956,1,2.962843,2.794488,2.981366,1.944483,1.079181,0.778151,0.161368,0.477121,2.186759,3.088136,1.41797,0,1.886491,1.69897,0.477121,1.991226,0.30103,1.851258,2.176091,no
1.681241,0.477121,1.886491,1.863323,1.897627,1.60206,0.477121,0,0,0.30103,2.858838,3.088136,1.977724,1.113943,2.531479,0.477121,0.60206,1.041393,0.30103,1,0.90309,no
2.155336,0.60206,2.466868,2.414973,2.513218,1.569491,1,0.778151,0.193125,0.30103,2.304404,3.088136,1.554973,0.845098,2.531479,0.954243,0.60206,1.544068,0,1.176091,1.431364,no
2.262451,0.778151,2.474216,2.217484,2.536558,1.507586,1.079181,0.60206,0.103804,0.477121,2.163817,3.088136,1.404149,0,1.778151,1.361728,0.477121,1.556303,0.30103,1.255273,1.778151,no
2.178977,0.30103,2.419956,2.298853,2.511883,1.618048,0.954243,0.30103,0.053078,0.60206,2.303736,3.088136,1.548758,1.113943,1.792392,1.39794,0.30103,1.579784,0.60206,1.20412,1.568202,no
1.934498,0.69897,2.390935,2.260071,2.561101,1.430236,1.176091,0.69897,0.11059,0.477121,2.286681,3.088136,1.605197,1.113943,1.778151,1.146128,0.30103,1.278754,0.90309,1.20412,1.342423,no
1.78533,0.60206,2.089905,1.908485,2.181844,1.353532,0.90309,0,0,0.30103,2.485523,3.088136,1.714833,1.113943,2.531479,1,0.30103,1.176091,0.477121,0.60206,1.255273,no
2.938019,1.176091,3.835627,2.61595,4.095623,1.996205,2.10721,1.653213,0.130334,0.90309,1.866524,3.088136,1.332236,1,1.041393,1.477121,0.60206,2.164353,0.477121,1.80618,2,no
2.303196,0,2.526339,2.322219,2.605305,1.284882,1.361728,0.69897,0.071882,0.69897,2.328094,3.088136,1.633468,1.113943,1.778151,1.568202,0.30103,1.69897,0.778151,1.255273,1.69897,no
1.579784,0.30103,1.819544,1.819544,1.819544,1.525045,0.477121,0,0,0.30103,2.795532,3.088136,1.89487,1.113943,2.531479,0.954243,0.30103,0.845098,0.30103,0.69897,1.041393,no
2.322219,1.079181,2.468347,2.342423,2.501059,1.807535,0.778151,0,0,0.60206,2.4843,3.088136,1.683047,1.113943,1.778151,1.39794,0.30103,1.556303,0.69897,1,1.690196,no
1.819544,0,2.017033,1.968483,2.021189,1.552303,0.60206,0,0,0.477121,2.622556,3.088136,1.737749,1.113943,1.778151,1,0.477121,1,0.60206,0.845098,1.30103,no
1.579784,0.60206,1.880814,1.819544,1.939519,1.472318,0.60206,0,0,0.30103,2.732932,3.088136,1.888348,1.113943,2.531479,0.845098,0.30103,0.845098,0.477121,0.90309,0.90309,no
1.924279,0.30103,2.130334,2.130334,2.130334,1.832509,0.477121,0,0,0.30103,2.80448,3.088136,1.926857,1.113943,2.531479,1.278754,0.477121,0.477121,0.477121,0.90309,1.30103,no
1.681241,0.30103,2.170262,1.568202,2.338456,1.094122,1.30103,0.477121,0.045323,0.69897,2.400123,3.088136,1.68922,1.113943,1.778151,1,0.477121,0.778151,1.477121,0.90309,1.041393,no
1.755875,0.60206,1.94939,1.934498,1.954243,1.486714,0.60206,0.30103,0.123852,0.30103,2.692556,3.088136,1.890253,1.113943,2.531479,1.079181,0.477121,0.90309,0.60206,0.69897,1.176091,no
2.029384,0.60206,2.571709,1.716003,2.778151,1.294907,1.518514,0.69897,0.053078,0.778151,2.260381,3.088136,1.603794,1.113943,1.792392,1.30103,0.778151,1.20412,1,1.079181,1.414973,no
1.740363,0.60206,1.934498,1.934498,1.934498,1.638489,0.477121,0,0,0.30103,2.861833,3.088136,2.03543,1.113943,2.531479,1.079181,0.477121,0.845098,0.60206,0.778151,1.176091,no
1.80618,0.60206,2.075547,1.857332,2.152288,1.140508,1.079181,0.30103,0.037426,0.30103,2.334454,3.088136,1.624179,1.113943,2.531479,1.113943,0.477121,0.845098,0.90309,0.69897,1.255273,no
1.690196,0.477121,2.173186,1.672098,2.330414,1.108227,1.278754,0.60206,0.068186,0.477121,2.457291,3.088136,1.748188,1.113943,2.518514,1.041393,0.477121,0.477121,0.845098,0.90309,1.079181,no
1.30103,0,1.892095,1.50515,2.041393,1.003461,1.113943,0.477121,0.068186,0.477121,2.582257,3.088136,1.852297,1.113943,2.518514,0.60206,0.60206,0.845098,1,0.69897,0.60206,no
2.158362,0.69897,2.634477,1.812913,2.821514,1.287578,1.568202,1,0.09691,0.69897,2.217405,3.088136,1.552547,1.113943,1.778151,1.255273,0.60206,1.361728,1.380211,1.113943,1.544068,no
1.60206,0.60206,1.880814,1.869232,1.924279,1.337459,0.69897,0.30103,0.09691,0.30103,2.587149,3.088136,1.740363,1.113943,2.531479,0.90309,0.60206,0.90309,0.69897,0.778151,0.954243,no
1.959041,0.69897,2.193125,2.060698,2.276462,1.159266,1.176091,0.30103,0.029384,0.60206,2.546629,3.088136,1.827951,1.113943,1.041393,1,0.69897,1.361728,0.69897,1,1.230449,no
2.133539,0.60206,2.451786,2.264818,2.583199,1.553033,1.079181,0.60206,0.103804,0.30103,2.244401,3.088136,1.530328,1.113943,2.531479,1.380211,0.778151,1.579784,0.778151,1.079181,1.518514,no
1.30103,0,1.892095,1.50515,2.045323,1.007321,1.113943,0.477121,0.068186,0.477121,2.582257,3.088136,1.852297,1.113943,2.518514,0.60206,0.60206,0.845098,0.954243,0.69897,0.60206,no
1.414973,0,1.792392,1.556303,1.863323,1.052694,0.90309,0.477121,0.11059,0.477121,2.784004,3.088136,2.03571,1.113943,2.518514,0.778151,0.30103,0,0,0.30103,0.778151,no
1.278754,0,1.792392,1.78533,1.880814,1.414973,0.60206,0,0,0.30103,2.628726,3.088136,1.753353,1.113943,2.531479,0.60206,0.30103,0,0.60206,0.60206,0.60206,no
2.212188,0.477121,2.697229,2.462398,2.865104,1.870404,1.041393,0.60206,0.113943,0.477121,2.260787,3.088136,1.519828,1.113943,1.792392,0.845098,0.30103,1.653213,0.778151,1.447158,1.579784,no
1.672098,0.69897,1.94939,1.763428,2.004321,1.414973,0.69897,0,0,0.30103,2.512217,3.088136,1.660391,1.113943,2.531479,1,0.30103,0.845098,0.69897,0.60206,1,no
1.913814,0,2.262451,1.799341,2.396199,1.41162,1.041393,0.60206,0.113943,0.477121,2.254548,3.088136,1.5302,0,1.792392,0.477121,0.60206,1.431364,0.778151,1.20412,1.113943,no
2.082785,0.60206,2.553883,2.0086,2.739572,1.258398,1.518514,0.778151,0.064458,0.778151,2.262759,3.088136,1.585799,0,1.778151,1.278754,0.60206,1.414973,1.643453,1.079181,1.447158,no
1.591065,0.60206,2.11059,1.897627,2.283301,1.111934,1.230449,0.30103,0.025306,0.60206,2.44061,3.088136,1.728841,1.113943,1.778151,0.90309,0.60206,0.60206,1.113943,0.778151,0.954243,no
1.929419,0.60206,2.298853,1.60206,2.429752,1.102091,1.380211,0.477121,0.037426,0.69897,2.349316,3.088136,1.648165,1.113943,1.778151,1.30103,0.30103,0.845098,2.045323,1,1.361728,no
1.278754,0.477121,1.934498,1.30103,2.113943,0.933993,1.255273,0.60206,0.071882,0.69897,2.447793,3.088136,1.739414,1.113943,1.778151,0.69897,0.60206,0.60206,1.255273,0.60206,0.69897,no
2.049218,0.60206,2.313867,2.257679,2.40824,1.638489,0.845098,0.30103,0.068186,0.30103,2.394749,3.088136,1.626648,1.113943,2.531479,1.079181,0.69897,1.462398,0.778151,1.041393,1.39794,no
1.732394,0.477121,2.117271,2.045323,2.232996,1.467312,0.845098,0.30103,0.068186,0.30103,2.380519,3.088136,1.587374,1.113943,2.531479,1,0.60206,0.845098,0.477121,0.90309,1.113943,no
1.886491,0.69897,2.371068,1.653213,2.550228,1.149527,1.447158,0.69897,0.060698,0.69897,2.305996,3.088136,1.616265,1.113943,1.778151,1,0.60206,1.278754,1.230449,0.954243,1.255273,no
1.146128,0.30103,1.732394,1.556303,1.763428,0.910091,0.954243,0.477121,0.09691,0.30103,2.348071,3.088136,1.591065,1.113943,2.531479,0.845098,0.477121,0,1.113943,0.60206,0.845098,no
2.245513,0.477121,2.646404,1.69897,2.813581,1.236789,1.612784,1.113943,0.113943,0.778151,2.209113,3.088136,1.574379,1.113943,1.041393,1.431364,0.60206,1.568202,1.531479,1.176091,1.633468,no
1.623249,0.60206,2.146128,1.579784,2.322219,1.079181,1.30103,0.477121,0.045323,0.69897,2.44248,3.088136,1.731105,1.113943,1.778151,0.90309,0.60206,0.845098,1.30103,0.845098,0.954243,no
1.832509,0.60206,2.10721,2.060698,2.178977,1.414973,0.845098,0.30103,0.068186,0.477121,2.369531,3.088136,1.566202,1.113943,1.792392,1,0.69897,1.113943,0.30103,0.778151,1.146128,no
1.819544,0.60206,2.292256,1.690196,2.472756,1.108565,1.414973,0.60206,0.049218,0.69897,2.328624,3.088136,1.64068,1.113943,1.778151,0.90309,0.60206,1.278754,1.255273,0.90309,1.176091,no
1.832509,0.60206,2.552668,2.045323,2.78746,1.316809,1.50515,0.60206,0.041393,0.778151,2.229631,3.088136,1.581608,1.113943,1.778151,1.113943,0.69897,1.079181,1.39794,1.113943,1.20412,no
2.123852,0.60206,2.338456,2.093422,2.404834,1.20085,1.255273,0.90309,0.149219,0.477121,2.10941,3.088136,1.449941,1.113943,1.792392,1.30103,0.60206,1.342423,1.322219,1.079181,1.477121,no
1.579784,0.30103,2.049218,1.462398,2.187521,0.956649,1.30103,0.477121,0.045323,0.69897,2.4004,3.088136,1.69117,1.113943,1.778151,0.90309,0.477121,0.845098,1.556303,0.845098,1,no
1.113943,0.30103,1.886491,1.531479,2.064458,0.96426,1.176091,0.60206,0.082785,0.477121,2.535471,3.088136,1.806655,1.113943,2.518514,0.477121,0.60206,0,1.146128,0.69897,0.477121,no
2.32838,1.079181,3.326745,2.739572,3.598024,1.97923,1.633468,1.113943,0.11059,0.69897,2.136657,3.088136,1.507721,1.113943,1.041393,0.60206,0.778151,1.431364,1.146128,1.39794,0.845098,no
2.752816,1,3.262688,2.752048,3.456821,1.917873,1.556303,1.113943,0.127105,0.60206,1.965249,3.088136,1.395501,1,1.778151,1.556303,0.30103,1.944483,1.763428,1.462398,2.029384,no
3.045714,1.770852,3.738384,2.992554,3.971183,1.883434,2.09691,1.612784,0.120574,0.845098,1.84236,3.088136,1.31133,0,1.778151,1.748188,0.477121,2.456366,1.518514,2.133539,2.359835,yes
2.50515,1.146128,2.694605,2.480007,2.737987,1.704494,1.079181,0.69897,0.133539,0.477121,2.263967,3.088136,1.563955,1.113943,1.778151,1.380211,0.477121,1.929419,0.477121,1.770852,1.69897,no
2.262451,0.69897,2.579784,2.354108,2.70757,1.760121,1,0.477121,0.08636,0.30103,2.336019,3.088136,1.597256,1.113943,2.531479,1.278754,0.477121,1.672098,0.477121,1.544068,1.544068,no
2.307496,0.954243,2.697229,2.434569,2.796574,1.898341,0.954243,0.778151,0.212188,0.30103,2.308842,3.088136,1.528274,0.30103,2.531479,1.39794,0.30103,1.623249,0.954243,1.079181,1.662758,no
1.623249,0,2.394452,1.90309,2.62941,1.289589,1.380211,0.778151,0.08636,0.69897,2.396496,3.088136,1.690993,1.113943,1.886491,0.477121,0.60206,0.954243,0.477121,1.176091,0.69897,no
2.326336,0.778151,2.544068,2.247973,2.63749,1.942504,0.778151,0,0,0.30103,2.514282,3.088136,1.702431,1.113943,2.531479,1.491362,0.30103,1.579784,0.60206,1.568202,1.770852,no
1.875061,0,2.187521,1.826075,2.296665,1.241048,1.113943,0.477121,0.068186,0.69897,2.535712,3.088136,1.805025,1.113943,1.792392,0.954243,0.477121,1.113943,1.20412,0.845098,1.113943,no
2.243038,0.60206,2.624282,2.276462,2.790988,1.377488,1.447158,1,0.123852,0.69897,2.334675,3.088136,1.649627,1.113943,1.176091,0.778151,0.60206,1.361728,0.60206,1.20412,1.491362,no
2.037426,0.477121,2.399674,2.117271,2.553883,1.236285,1.361728,0.778151,0.089905,0.69897,2.410693,3.088136,1.725748,1.113943,1.041393,0.845098,0.477121,1.414973,0.60206,1.342423,1.20412,no
1.80618,0.30103,2.017033,2.004321,2.029384,1.439333,0.69897,0.30103,0.09691,0.30103,2.537189,3.088136,1.701136,1.113943,2.531479,0.60206,0.60206,1.431364,0,1.146128,1,no
1.60206,0.30103,2.1959,1.716003,2.392697,1.123852,1.322219,0.845098,0.113943,0.477121,2.436878,3.088136,1.723456,1.113943,2.518514,0.845098,0.477121,0.845098,0.477121,1,0.90309,yes
2.747412,1.39794,3.080987,2.679428,3.211388,1.609167,1.623249,0.90309,0.068186,0.69897,2.171258,3.088136,1.5358,1.113943,1.176091,1.342423,0.69897,1.80618,0.954243,1.491362,1.778151,no
1.908485,0,2.439333,2.060698,2.63749,1.246745,1.431364,0.90309,0.103804,0.69897,2.344019,3.088136,1.657629,1.113943,1.886491,0.778151,0.69897,1.30103,0.69897,1.079181,1.20412,no
1.944483,0.845098,2.123852,2.123852,2.123852,1.826075,0.477121,0,0,0.30103,2.791691,3.088136,1.883661,1.113943,2.531479,0.778151,0.69897,1.544068,0.477121,1.146128,1.146128,no
2.245513,0,2.451786,2.403121,2.495544,1.467756,1.079181,0.60206,0.103804,0.60206,2.265879,3.088136,1.519697,1.113943,1.792392,0.954243,0.60206,1.491362,0.69897,1.278754,1.431364,no
2.146128,0,2.649335,2.146128,2.838219,1.490099,1.380211,0.954243,0.130334,0.778151,2.388155,3.088136,1.694781,1.113943,1.176091,0.90309,0.60206,1.431364,1,1.255273,1.361728,no
1.755875,0,2.089905,2.025306,2.133539,1.371068,0.845098,0,0,0.477121,2.420781,3.088136,1.598462,1.113943,1.792392,0.477121,0.69897,1.113943,0.69897,0.954243,1.079181,no
2.164353,0.30103,2.392697,2.332438,2.448706,1.386142,1.113943,0.69897,0.123852,0.60206,2.238046,3.088136,1.50515,1.113943,1.792392,0.90309,0.60206,1.447158,0.778151,1.30103,1.342423,no
1.732394,0.30103,2.08636,2.0086,2.133539,1.371068,0.845098,0,0,0.477121,2.416923,3.088136,1.591065,1.113943,1.792392,0.477121,0.69897,1.113943,0.69897,0.954243,1.079181,no
1.322219,0.30103,1.845098,1.462398,1.954243,0.958564,1.079181,0.60206,0.103804,0.69897,2.594293,3.088136,1.851809,1.113943,1.792392,0.477121,0.477121,0.60206,0.477121,0.69897,0.778151,no
2.075547,0.845098,2.599883,2.068186,2.802774,1.237041,1.60206,1.113943,0.117271,0.69897,2.188675,3.088136,1.552303,1.113943,1.886491,0.90309,0.60206,1.690196,0.477121,1.322219,1.20412,no
1.414973,0,1.792392,1.778151,1.863323,1.39794,0.60206,0,0,0.30103,2.700418,3.088136,1.830396,1.113943,2.531479,0.477121,0.60206,0.845098,0.30103,0.90309,0.69897,no
1.740363,0.477121,2.060698,1.869232,2.152288,1.270213,0.954243,0.30103,0.053078,0.477121,2.747707,3.088136,1.993436,1.113943,2.518514,0.477121,0.30103,0.90309,0.60206,0.845098,1.079181,no
1.477121,0,1.832509,1.732394,1.90309,1.15137,0.845098,0,0,0.477121,2.772688,3.088136,2.011444,1.113943,2.518514,0.60206,0.60206,0.60206,0.60206,0.90309,0.778151,no
1.778151,0,2.060698,1.908485,2.146128,1.173186,1.041393,0.477121,0.079181,0.60206,2.589503,3.088136,1.863323,1.113943,1.886491,0.845098,0.69897,1.176091,0.778151,0.954243,1,no
2.330414,0,2.563481,2.525045,2.597695,1.702258,0.954243,0.30103,0.053078,0.477121,2.3622,3.088136,1.579784,1.113943,1.886491,0.778151,0.60206,1.342423,0.60206,1.255273,1.653213,no
2.152288,0.30103,2.640481,2.190332,2.832509,1.466719,1.39794,0.845098,0.09691,0.778151,2.363217,3.088136,1.66941,1.113943,1.176091,0.778151,0.60206,1.39794,0.845098,1.230449,1.380211,no
1.826075,0.30103,2.383815,1.90309,2.578639,1.207365,1.414973,0.954243,0.120574,0.69897,2.360896,3.088136,1.664642,1.113943,1.176091,0.69897,0.60206,1.146128,0.477121,1.113943,1.079181,no
1.90309,0.477121,2.152288,2.113943,2.206826,1.322219,0.954243,0.477121,0.09691,0.30103,2.355068,3.088136,1.571126,1.113943,2.531479,0.69897,0.60206,1.20412,0.69897,1.146128,1.079181,no
1.278754,0,1.763428,1.342423,1.845098,0.897627,1.041393,0.477121,0.079181,0.60206,2.616686,3.088136,1.867467,1.113943,1.792392,0.477121,0.30103,0.30103,0.69897,0.477121,0.477121,no
2.0086,0.477121,2.158362,2.033424,2.158362,1.687261,0.60206,0.30103,0.123852,0.30103,2.643453,3.088136,1.787673,1.113943,2.531479,0.954243,0.477121,1.255273,0.30103,1.079181,1.30103,no
1.672098,0.477121,2.075547,1.39794,2.198657,0.966611,1.30103,0.69897,0.082785,0.60206,2.422721,3.088136,1.727297,1.113943,1.886491,1.113943,0.30103,0.90309,1.799341,0.954243,1.113943,no
1.278754,0.60206,1.643453,1.612784,1.681241,1.221936,0.60206,0,0,0.30103,2.722634,3.088136,1.888348,1.113943,2.531479,0.30103,0.477121,0.30103,0.30103,0.69897,0.30103,no
1.568202,0,2.313867,1.763428,2.534026,1.182129,1.39794,0.845098,0.09691,0.69897,2.373151,3.088136,1.676694,1.113943,1.176091,0.69897,0.60206,0.954243,1.20412,1.079181,0.778151,no
1.954243,0.954243,2.421604,2.045323,2.597695,1.193959,1.447158,0.90309,0.100371,0.60206,2.330556,3.088136,1.664172,1.113943,1.886491,0.778151,0.60206,1.556303,0.60206,1.361728,1.041393,no
2.322219,0.30103,2.568202,2.536558,2.594393,1.755875,0.90309,0.30103,0.056905,0.477121,2.411384,3.088136,1.62024,1.113943,1.886491,0.845098,0.60206,1.380211,0.845098,1.255273,1.623249,no
1.414973,0,2.187521,1.869232,2.41162,1.184123,1.278754,0.845098,0.123852,0.60206,2.473896,3.088136,1.757548,1.113943,2.123852,0.477121,0.60206,0.845098,0.60206,1.079181,0.69897,no
2.383815,0.845098,2.745855,2.0086,2.901458,1.245019,1.690196,1.113943,0.09691,0.845098,2.145662,3.088136,1.529943,1.113943,1.041393,1.146128,0.477121,1.880814,0.954243,1.491362,1.70757,no
1.875061,0,2.468347,1.982271,2.664642,1.381115,1.322219,0.778151,0.09691,0.477121,2.423574,3.088136,1.71433,1.113943,2.518514,0.60206,0.69897,1.079181,0.69897,0.954243,1.255273,no
2,0.778151,2.184691,2.170262,2.193125,1.721563,0.60206,0,0,0.30103,2.629746,3.088136,1.748188,1.113943,2.531479,0.954243,0.69897,1.50515,0.60206,1.176091,1.255273,no
1.431364,0,2.278754,1.799341,2.515874,1.282622,1.278754,0.69897,0.08636,0.60206,2.41283,3.088136,1.698014,1.113943,1.176091,0.69897,0.60206,0,0.845098,0.954243,0.69897,no
1.778151,0.30103,2.454845,1.857332,2.669317,1.167613,1.544068,1,0.100371,0.69897,2.23995,3.088136,1.586812,1.113943,1.886491,0.778151,0.60206,1.39794,0.60206,1.20412,1,yes
1.30103,0.30103,1.913814,1.477121,2.082785,1.113943,1.041393,0.477121,0.079181,0.60206,2.654658,3.088136,1.911158,1.113943,1.041393,0.60206,0.60206,0.30103,0.30103,0.845098,0.60206,no
1.832509,0.30103,2.103804,1.78533,2.1959,1.084219,1.176091,0.60206,0.082785,0.60206,2.467815,3.088136,1.75366,1.113943,1.886491,0.954243,0.477121,0.90309,1.477121,0.90309,1.20412,no
1.531479,0.30103,2.064458,1.770852,2.227887,1.176091,1.113943,0.60206,0.09691,0.477121,2.591154,3.088136,1.852785,1.113943,2.518514,0.60206,0.60206,0.69897,0.30103,0.845098,0.90309,no
2.93044,1.799341,3.230449,2.488551,3.369587,1.733999,1.653213,1,0.079181,0.69897,2.112035,3.088136,1.493876,1.113943,1.792392,1.612784,0.30103,2.133539,1.322219,1.954243,2.240549,no
2.742725,1.230449,3.251151,2.283301,3.447468,1.572639,1.892095,1.322219,0.100371,0.778151,2.008728,3.088136,1.432167,0,1.778151,1.531479,0.778151,1.934498,1.724276,1.672098,1.90309,no
1.90309,0.69897,2.079181,2,2.079181,1.487845,0.69897,0.477121,0.176091,0.30103,2.565257,3.088136,1.752048,1.113943,2.531479,1.146128,0.30103,1.079181,1.491362,0.477121,1.30103,no
2.30103,0.69897,2.502427,2.025306,2.557507,1.528016,1.079181,0.69897,0.133539,0.477121,2.190332,3.088136,1.458336,1.113943,1.792392,1.20412,0.477121,1.70757,0.30103,1.278754,1.763428,no
1.447158,0,2.184691,2,2.404834,1.380211,1.079181,0.30103,0.037426,0.477121,2.646492,3.088136,1.914766,1.113943,2.518514,0.477121,0.30103,0.69897,1.176091,0.954243,0.845098,no
2.123852,0.778151,2.394452,2.053078,2.488551,1.360404,1.176091,0.69897,0.11059,0.778151,2.533848,3.088136,1.814847,1.113943,1.778151,0.778151,0.30103,1.342423,0.845098,1,1.579784,no
1.462398,0.477121,1.851258,1.851258,1.851258,1.556303,0.477121,0,0,0.30103,2.789581,3.088136,1.872156,1.113943,2.531479,0.477121,0.30103,1,0.477121,0.778151,0.778151,no
2.385606,1,2.716838,2.193125,2.848805,1.559308,1.322219,0.778151,0.09691,0.477121,2.057666,3.088136,1.403121,0,1.792392,0.954243,0.477121,1.812913,0.477121,1.477121,1.838849,no
2.392697,1.079181,2.614897,2.570543,2.652246,1.583539,1.113943,0.60206,0.09691,0.30103,2.207715,3.088136,1.49596,0,2.531479,1.146128,0.477121,1.724276,0.60206,1.431364,1.653213,no
2.842609,1.491362,3.234264,2.793092,3.391464,1.980867,1.431364,1.113943,0.164353,0.30103,1.970254,3.088136,1.366796,1.113943,2.531479,1.322219,0.477121,2.041393,0.69897,1.672098,1.954243,no
2.130334,0.90309,2.33646,2.324282,2.338456,1.865282,0.60206,0,0,0.30103,2.697517,3.088136,1.853272,1.113943,2.531479,1.462398,0.477121,1.568202,0.778151,1.518514,1.491362,no
1.934498,0.69897,2.198657,2.064458,2.269513,1.215373,1.113943,0.60206,0.09691,0.30103,2.28142,3.088136,1.594724,1.113943,2.531479,1.20412,0.30103,1.230449,1.544068,1,1.342423,no
2.58995,1.041393,2.772322,2.495544,2.864511,1.725993,1.176091,0.69897,0.11059,0.60206,2.509485,3.088136,1.779669,1.113943,1.778151,0.845098,0.477121,1.70757,0.845098,1.176091,1.94939,no
1.322219,0.477121,1.653213,1.60206,1.653213,1.195069,0.60206,0,0,0.30103,2.691373,3.088136,1.875061,1.113943,2.531479,0.60206,0.30103,0.845098,0.90309,0.477121,0.60206,no
2.075547,0.69897,2.30963,2.235528,2.334454,1.396025,1,0.30103,0.045323,0.30103,2.347213,3.088136,1.665862,1.113943,2.531479,1.518514,0.477121,1.20412,1.322219,0.954243,1.60206,no
2.444045,0.60206,2.751279,2.278754,2.90309,1.427648,1.50515,0.778151,0.064458,0.778151,2.278822,3.088136,1.635785,0.477121,1.778151,1.414973,0.30103,1.681241,0.60206,1.176091,1.886491,no
1.653213,0.477121,2.190332,1.462398,2.374748,1.10721,1.322219,0.845098,0.113943,0.60206,2.415808,3.088136,1.723866,1.113943,1.792392,0.69897,0.30103,1.041393,1.146128,0.778151,1.176091,no
1.886491,0.69897,2.190332,2.120574,2.20412,1.439333,0.845098,0,0,0.477121,2.83187,3.088136,2.069409,1.113943,2.518514,0.954243,0.30103,1.278754,0.30103,0.477121,1.30103,no
1.959041,0.69897,2.089905,2.089905,2.089905,1.792392,0.477121,0,0,0.477121,2.830268,3.088136,1.954243,1.113943,1.792392,0.954243,0.30103,1.113943,0.477121,0.90309,1.278754,no
1.531479,0,1.78533,1.78533,1.78533,1.491362,0.477121,0,0,0.477121,2.830268,3.088136,1.954243,1.113943,1.792392,0.954243,0.30103,0.69897,0.60206,0.30103,0.954243,no
1.886491,0.69897,2.041393,2.041393,2.041393,1.744293,0.477121,0,0,0.477121,2.830268,3.088136,1.954243,1.113943,1.792392,1.146128,0.30103,0.90309,0.477121,0.845098,1.20412,no
2.176091,1,3.005609,2.453318,3.253822,1.756103,1.518514,1.079181,0.127105,0.778151,2.233631,3.088136,1.583312,1.113943,1.041393,0.90309,0.30103,1.531479,1.041393,1.255273,1.39794,no
1.39794,0,1.690196,1.230449,1.886491,0.974972,1,0,0,0.60206,2.605424,3.088136,1.862012,1.113943,1.778151,0.845098,0.477121,0,0,0.60206,0.845098,no
1.934498,0.90309,2.238046,2.103804,2.346353,1.512818,0.90309,0,0,0.477121,2.766733,3.088136,2.009833,1.113943,2.518514,1.176091,0.30103,1.278754,0.477121,0.30103,1.447158,no
1.69897,0.60206,2.675778,2.633468,2.937518,2.240549,0.778151,0.30103,0.079181,0.477121,2.481156,3.088136,1.722634,1.113943,1.886491,0.90309,0.30103,0.69897,1.079181,1.079181,0.90309,no
2.255273,0.69897,2.394452,2.394452,2.394452,2.095169,0.477121,0,0,0.477121,2.797268,3.088136,1.889302,1.113943,1.778151,1,0.30103,1.690196,0.30103,0.845098,1.531479,no
2.820201,1.740363,3.120903,2.599883,3.241795,1.590061,1.672098,1.146128,0.10721,0.778151,2.06826,3.088136,1.456214,0.477121,1.778151,0.954243,0.60206,1.763428,0.60206,1.414973,1.491362,no
1.690196,0,1.982271,1.857332,2.056905,1.297323,0.845098,0.30103,0.068186,0.477121,2.775487,3.088136,2.024609,1.113943,2.518514,0.954243,0.477121,0,0.778151,0.778151,0.954243,no
1.20412,0.30103,1.662758,1.556303,1.732394,1.153815,0.69897,0,0,0.477121,2.934625,3.088136,2.168055,1.113943,2.518514,0.30103,0.477121,0,0,0.60206,0.30103,no
1.544068,0,1.838849,1.778151,1.880814,1.414973,0.60206,0,0,0.60206,2.66339,3.088136,1.801609,1.113943,1.778151,0.845098,0.60206,0.30103,0.30103,0.69897,0.845098,no
1.361728,0,1.755875,1.643453,1.832509,1.158362,0.778151,0,0,0.477121,2.853941,3.088136,2.100371,1.113943,2.518514,0.477121,0.60206,0.30103,0,0.778151,0.477121,no
1.30103,0,1.662758,1.662758,1.662758,1.371068,0.477121,0,0,0.30103,2.801404,3.088136,1.90309,1.113943,2.531479,0.60206,0.477121,0,0,0.69897,0.60206,no
1.30103,0,1.255273,1.255273,1.361728,1.079181,0.477121,0,0,0.30103,2.801404,3.088136,1.90309,1.113943,2.531479,0.60206,0.60206,0.30103,0,0.60206,0.60206,no
1.113943,0,1.342423,1.041393,1.653213,0.991226,0.778151,0.30103,0.079181,0.477121,2.840106,3.088136,2.078457,1.113943,2.518514,0.477121,0.60206,0,0.30103,0.477121,0.477121,no
1.146128,0,1.30103,1.230449,1.431364,0.875061,0.69897,0,0,0.477121,2.934625,3.088136,2.168055,1.113943,2.518514,0.477121,0.477121,0,1.20412,0.60206,0.477121,no
1.230449,0,1.431364,1.176091,1.69897,1.033424,0.778151,0,0,0.477121,2.842859,3.088136,2.082067,1.113943,2.518514,0.477121,0.477121,0,0,0.477121,0.477121,no
1.643453,0,1.94939,1.70757,2.012837,1.192289,0.90309,0,0,0.30103,2.44937,3.088136,1.741467,1.113943,2.531479,0.90309,0.477121,0.60206,0.477121,0.69897,0.90309,no
1.146128,0,1.342423,1.113943,1.672098,1.0086,0.778151,0,0,0.477121,2.853941,3.088136,2.100371,1.113943,2.518514,0.477121,0.60206,0.30103,0,0.60206,0.477121,no
1.740363,0.30103,1.944483,1.944483,1.944483,1.64836,0.477121,0,0,0.477121,2.797268,3.088136,1.889302,1.113943,1.778151,0.60206,0.60206,0,0.477121,0.778151,0.60206,no
1.30103,0,1.748188,1.633468,1.838849,1.029789,0.90309,0,0,0.477121,2.723571,3.088136,1.992509,1.113943,2.518514,0.60206,0.60206,0.30103,0.69897,0.69897,0.60206,no
1.20412,0,1.690196,1.568202,1.770852,1.100371,0.778151,0,0,0.477121,2.853941,3.088136,2.100371,1.113943,2.518514,0.477121,0.60206,0,0.60206,0.60206,0.477121,no
1.113943,0,1.544068,1.544068,1.544068,1.255273,0.477121,0.30103,0.176091,0.30103,2.79379,3.088136,1.889302,1.113943,2.531479,0.477121,0.60206,0,0,0.477121,0.477121,no
1.146128,0,1.30103,1.113943,1.633468,0.973128,0.778151,0,0,0.477121,2.853941,3.088136,2.100371,1.113943,2.518514,0.477121,0.477121,0,1.146128,0.60206,0.477121,no
1.278754,0,1.851258,1.342423,1.991226,0.992111,1.079181,0.30103,0.037426,0.477121,2.640571,3.088136,1.921946,1.113943,2.518514,0.60206,0.60206,0.30103,0.60206,0.69897,0.60206,no
1.39794,0,1.763428,1.672098,1.826075,1.079181,0.845098,0,0,0.60206,2.762056,3.088136,2,1.113943,1.778151,0.69897,0.60206,0,0.60206,0.60206,0.69897,no
1.176091,0,1.30103,1.230449,1.431364,0.875061,0.69897,0,0,0.477121,2.934625,3.088136,2.168055,1.113943,2.518514,0.477121,0.477121,0,1.20412,0.60206,0.477121,no
1.20412,0,1.579784,1.579784,1.579784,1.290035,0.477121,0,0,0.477121,2.794488,3.088136,1.880814,1.113943,1.778151,0.477121,0.60206,0,0,0.69897,0.477121,no
1.176091,0,1.799341,1.342423,1.94939,0.920645,1.113943,0.30103,0.033424,0.69897,2.585088,3.088136,1.868233,1.113943,1.778151,0.477121,0.60206,0,0.477121,0.60206,0.477121,no
1.146128,0,1.681241,1.531479,1.778151,0.923244,0.954243,0,0,0.60206,2.664059,3.088136,1.931966,1.113943,1.778151,0.477121,0.60206,0.30103,0.477121,0.60206,0.477121,no
1.146128,0,1.278754,1.20412,1.414973,0.860338,0.69897,0,0,0.477121,2.934625,3.088136,2.168055,1.113943,2.518514,0.477121,0.477121,0,1,0.60206,0.477121,no
1.278754,0,1.755875,1.531479,1.857332,0.948902,1,0,0,0.60206,2.614897,3.088136,1.886491,1.113943,1.778151,0.60206,0.60206,0.477121,0.477121,0.60206,0.60206,no
1.518514,0,1.851258,1.690196,1.913814,1.161368,0.845098,0,0,0.477121,2.785686,3.088136,2.049877,1.113943,2.518514,0.69897,0.477121,0,1.041393,0.778151,0.69897,no
1.278754,0,1.792392,1.60206,1.913814,1.046495,0.954243,0,0,0.60206,2.660752,3.088136,1.917768,1.113943,1.778151,0.477121,0.477121,0,0.90309,0.60206,0.477121,no
1.146128,0,1.176091,1.079181,1.491362,0.929419,0.69897,0,0,0.477121,2.934625,3.088136,2.168055,1.113943,2.518514,0.477121,0.60206,0.30103,0.778151,0.60206,0.477121,no
1.255273,0,1.653213,1.612784,1.690196,1.230449,0.60206,0,0,0.60206,2.627366,3.088136,1.737749,0.477121,1.778151,0.477121,0.477121,0,0,0.69897,0.477121,no
1.612784,0,1.869232,1.869232,1.869232,1.574031,0.477121,0,0,0.477121,2.797268,3.088136,1.889302,1.113943,1.778151,0.845098,0.30103,0.477121,0.60206,0.477121,1.079181,no
1.633468,0.60206,1.838849,1.838849,1.838849,1.544068,0.477121,0,0,0.477121,2.797268,3.088136,1.889302,1.113943,1.778151,0.60206,0.30103,1,0.30103,0.69897,1,no
2.776701,1.50515,3.200577,2.5302,3.386677,1.626032,1.778151,1.079181,0.075547,0.778151,2.063258,3.088136,1.474653,0,1.778151,1.230449,0.477121,2.20412,0.69897,1.908485,2.033424,yes
2.502427,0.954243,2.627366,2.625312,2.62941,2.154333,0.60206,0,0,0.477121,2.691373,3.088136,1.82393,1.113943,1.778151,1.113943,0.30103,1.70757,0.30103,1.079181,1.732394,no
2.62941,1.556303,2.726727,2.710117,2.7348,1.960613,0.845098,0,0,0.69897,2.391817,3.088136,1.579784,0.477121,1.778151,1.176091,0.477121,2.075547,0.477121,1.612784,1.851258,no
1.50515,0,1.763428,1.740363,1.770852,1.308137,0.60206,0,0,0.477121,2.695482,3.088136,1.884625,1.113943,1.778151,0.477121,0.30103,0.30103,0,0.69897,0.477121,no
1.681241,0,1.913814,1.875061,1.94939,1.481872,0.60206,0,0,0.477121,2.632457,3.088136,1.76095,1.113943,1.778151,0.60206,0.30103,0.778151,0.477121,0.90309,0.778151,no
2.753583,1.414973,3.171726,2.670246,3.35526,1.719994,1.653213,1.041393,0.089905,0.69897,2.117271,3.088136,1.50147,0.90309,1.778151,1.322219,0.30103,1.556303,1.414973,1.544068,1.477121,yes
1.919078,0,2.187521,2.10721,2.260071,1.373464,0.954243,0.477121,0.09691,0.477121,2.291147,3.088136,1.539452,0.90309,1.778151,1.342423,0.30103,0.477121,1,0.69897,1.342423,no
2.350248,1.176091,2.583199,2.456366,2.673021,1.389166,1.322219,0.778151,0.09691,0.60206,2.077004,3.088136,1.445604,1.113943,1.778151,1.20412,0.477121,1.826075,1.041393,1.50515,1.531479,no
1.322219,0,1.662758,1.643453,1.672098,1.212986,0.60206,0,0,0.30103,2.668078,3.088136,1.826075,1.113943,2.531479,0.477121,0.477121,0,0.845098,0.60206,0.477121,no
2.161368,0.69897,2.348305,2.238046,2.39794,1.245513,1.20412,0.60206,0.079181,0.477121,2.158574,3.088136,1.508799,1.113943,1.778151,1.176091,0.477121,1.690196,1,1.361728,1.342423,no
2.597695,1.39794,3.137354,2.912753,3.350054,1.939918,1.431364,0.90309,0.103804,0.60206,2.015737,3.088136,1.423246,1.113943,1.778151,1.20412,0.778151,1.799341,1,1.591065,1.491362,no
2.287802,1.176091,2.428135,2.320146,2.465383,1.402261,1.113943,0,0,0.60206,2.180642,3.088136,1.464936,0.90309,1.778151,1.176091,0.477121,1.78533,0.845098,1.643453,1.477121,no
2.049218,0.69897,2.227887,2.184691,2.274158,1.507451,0.845098,0.30103,0.068186,0.60206,2.415524,3.088136,1.667453,1.113943,1.778151,0.90309,0.477121,1.556303,0.477121,1.041393,1.176091,no
2.647383,1.414973,2.915927,2.649335,3.028978,1.536306,1.518514,0.954243,0.09691,0.69897,1.94171,3.088136,1.365301,0.90309,1.778151,1.342423,0.477121,1.929419,1.079181,1.880814,1.740363,yes
2.737987,1.380211,2.992995,2.687529,3.106871,1.586475,1.544068,1,0.100371,0.778151,2.166696,3.088136,1.543323,0.477121,1.778151,1.643453,0.30103,1.892095,1.342423,1.724276,1.857332,no
2.546543,1.380211,2.752048,2.511883,2.830589,1.431364,1.431364,0.778151,0.075547,0.778151,2.225697,3.088136,1.575765,0.477121,1.778151,1.342423,0.30103,1.633468,1.278754,1.568202,1.531479,no
2.704151,1.361728,3.166726,2.662758,3.359076,1.652633,1.724276,1.30103,0.136721,0.778151,2.04817,3.088136,1.458033,0.477121,1.778151,1.176091,0.30103,2.227887,0.60206,1.643453,1.995635,no
2.942008,1.681241,3.394101,2.877947,3.581153,1.775465,1.819544,1.431364,0.146128,0.778151,1.97511,3.088136,1.398981,0.477121,1.778151,1.724276,0.30103,1.995635,1.462398,1.845098,1.863323,no
2.217484,0.954243,2.40824,2.404834,2.41162,1.937869,0.60206,0,0,0.30103,2.689903,3.088136,1.871164,1.113943,2.531479,0.954243,0.477121,1.944483,0.30103,1.342423,1.255273,no
1.556303,0.30103,1.929419,1.929419,1.929419,1.633468,0.477121,0,0,0.30103,2.792041,3.088136,1.877947,1.113943,2.531479,0.845098,0.30103,0.477121,0.30103,0.69897,0.845098,no
1.792392,0.30103,2.11059,2.082785,2.1959,1.60206,0.69897,0,0,0.477121,2.554186,3.088136,1.732394,1.113943,1.778151,1.20412,0.477121,0,0.477121,1.079181,1.20412,no
1.792392,0.30103,1.973128,1.681241,1.973128,1.384712,0.69897,0,0,0.477121,2.55206,3.088136,1.72632,1.113943,1.778151,0.90309,0.477121,1.176091,0.60206,0.778151,0.954243,no
2.612784,1.255273,3.063709,2.596597,3.249932,2.077259,1.20412,0.778151,0.123852,0.60206,2.084469,3.088136,1.404834,1.113943,1.778151,1.278754,0.60206,1.886491,0.845098,1.568202,1.690196,no
2.305351,0.845098,2.472756,2.472756,2.472756,2.173186,0.477121,0,0,0.30103,2.792041,3.088136,1.877947,1.113943,2.531479,1.322219,0.30103,1.342423,1.146128,1.230449,1.380211,no
1.113943,0,1.579784,1.579784,1.579784,1.290035,0.477121,0,0,0.30103,2.792041,3.088136,1.877947,1.113943,2.531479,0.477121,0.477121,0,0.90309,0.477121,0.477121,no
1.447158,0,1.755875,1.755875,1.755875,1.462398,0.477121,0,0,0.30103,2.792041,3.088136,1.877947,1.113943,2.531479,0.60206,0.477121,0.954243,0.60206,0.954243,0.60206,no
1.079181,0,1.556303,1.556303,1.556303,1.267172,0.477121,0,0,0.30103,2.792041,3.088136,1.877947,1.113943,2.531479,0.477121,0.60206,0,0.477121,0.477121,0.477121,no
2.214844,0.477121,2.679428,2.290035,2.857332,1.862728,1.041393,0.60206,0.113943,0.60206,2.21643,3.088136,1.495544,1.113943,1.778151,1.491362,0.30103,0.90309,1.255273,0.60206,1.544068,no
1.431364,0,1.740363,1.740363,1.740363,1.447158,0.477121,0,0,0.30103,2.792041,3.088136,1.877947,1.113943,2.531479,0.778151,0.60206,0,0.477121,0.30103,0.778151,no
1.380211,0.30103,1.755875,1.681241,1.80618,1.342423,0.60206,0,0,0.60206,2.627366,3.088136,1.737749,0.477121,1.778151,0.778151,0.30103,0.778151,0.477121,0.477121,0.90309,no
1.939519,0.60206,2.09691,2.09691,2.09691,1.799341,0.477121,0,0,0.30103,2.861833,3.088136,2.03543,1.113943,2.531479,1.176091,0.30103,1.361728,0.90309,0.845098,1.230449,no
1.113943,0,1.113943,1.113943,1.30103,1.021189,0.477121,0,0,0.30103,2.861833,3.088136,2.03543,1.113943,2.531479,0.477121,0.477121,0,0,0.477121,0.477121,no
1.447158,0,1.732394,1.732394,1.732394,1.439333,0.477121,0,0,0.30103,2.861833,3.088136,2.03543,1.113943,2.531479,0.60206,0.477121,0.954243,0.30103,0.954243,0.60206,no
2.004321,0.845098,2.146128,2.146128,2.146128,1.848189,0.477121,0,0,0.30103,2.861833,3.088136,2.03543,1.113943,2.531479,1.146128,0.477121,1.414973,0.30103,1.041393,1.322219,no
2.247973,1,2.380211,2.371068,2.392697,1.700704,0.778151,0.30103,0.079181,0.477121,2.496653,3.088136,1.702431,1.113943,1.778151,1,0.477121,1.447158,1.079181,1.041393,1.322219,no
2.136721,0.90309,2.404834,2.214844,2.517196,1.387923,1.176091,0.69897,0.11059,0.60206,2.102331,3.088136,1.410102,1.113943,1.778151,0.90309,0.477121,1.748188,0.69897,1.447158,1.230449,no
2.654177,1.447158,3.200303,2.627366,3.413635,1.573915,1.857332,0.90309,0.041393,0.845098,1.899656,3.088136,1.313023,1,0.30103,1.39794,0.477121,2.11059,1.20412,1.886491,1.832509,no
2.799341,1.531479,3.147676,2.691081,3.3126,1.65925,1.672098,0.954243,0.068186,0.778151,2.062732,3.088136,1.475816,0.90309,1.778151,0.69897,0.477121,1.322219,0.477121,1.146128,0.90309,no
2.117271,0.477121,2.383815,2.232996,2.49276,1.364363,1.176091,0.60206,0.082785,0.60206,2.095169,3.088136,1.395501,1.113943,1.778151,0.69897,0.477121,1.30103,0.778151,1.113943,0.845098,no
1.447158,0,1.770852,1.681241,1.819544,1.236789,0.69897,0,0,0.30103,2.694605,3.088136,1.89487,1.113943,2.531479,0.60206,0.477121,0,0.778151,0.69897,0.60206,no
1.579784,0,1.838849,1.838849,1.857332,1.562293,0.477121,0,0,0.477121,2.797268,3.088136,1.889302,1.113943,1.778151,0.954243,0.30103,0,0.778151,0.477121,0.954243,no
1.653213,0.60206,2.0086,1.875061,2.127105,1.534661,0.69897,0,0,0.477121,2.505828,3.088136,1.618048,1.113943,1.778151,0.60206,0.30103,1,0.477121,0.845098,1,no
1.568202,0.60206,1.863323,1.799341,1.908485,1.230449,0.778151,0,0,0.477121,2.845346,3.088136,2.098298,1.113943,2.518514,0.477121,0.30103,0.90309,0.30103,0.30103,0.845098,no
1.342423,0.30103,1.662758,1.623249,1.672098,1.09691,0.69897,0,0,0.477121,2.55206,3.088136,1.72632,1.113943,1.778151,0.69897,0.30103,0.954243,0.845098,0.778151,0.69897,no
2.08636,0.90309,2.20412,2.193125,2.212188,1.740363,0.60206,0,0,0.30103,2.665581,3.088136,1.778151,0,2.531479,0.845098,0.30103,1.579784,0.477121,0.477121,1.579784,no
1.380211,0.30103,1.716003,1.462398,1.755875,1.0141,0.845098,0.477121,0.123852,0.69897,2.763181,3.088136,2.006466,1.113943,1.778151,0.30103,0.30103,0.778151,0.30103,0.69897,0.30103,no
2.053078,1.176091,2.344392,2.130334,2.465383,1.338257,1.176091,0.477121,0.056905,0.60206,2.543087,3.088136,1.835691,0,1.041393,0.60206,0.30103,1.431364,0.30103,1.322219,1.230449,no
2.222716,0.778151,2.338456,2.060698,2.354108,1.371068,1.041393,0.477121,0.079181,0.477121,2.187521,3.088136,1.414973,1.113943,1.778151,1.041393,0.30103,1.20412,0.60206,1,1.255273,no
1.361728,0.30103,1.643453,1.643453,1.643453,1.352183,0.477121,0,0,0.477121,2.798651,3.088136,1.897627,1.113943,1.778151,0.477121,0.30103,0.477121,0,0.477121,0.69897,no
1.579784,0,1.812913,1.812913,1.812913,1.518514,0.477121,0,0,0.477121,2.798651,3.088136,1.897627,1.113943,1.778151,0.30103,0.30103,0.30103,0,0.60206,0.30103,no
1.322219,0,1.643453,1.643453,1.643453,1.352183,0.477121,0,0,0.477121,2.798651,3.088136,1.897627,1.113943,1.778151,0.477121,0.30103,0.477121,0,0.477121,0.69897,no
1.447158,0,1.716003,1.716003,1.716003,1.423246,0.477121,0,0,0.477121,2.798651,3.088136,1.897627,1.113943,1.778151,0.477121,0.30103,0.778151,0,0.477121,0.845098,no
2.31597,0.778151,2.4133,2.4133,2.4133,2.113943,0.477121,0,0,0.477121,2.798651,3.088136,1.897627,1.113943,1.778151,1.255273,0.60206,1.662758,0.30103,1.113943,1.60206,no
1.69897,0.30103,1.908485,1.908485,1.908485,1.612784,0.477121,0,0,0.477121,2.798651,3.088136,1.897627,1.113943,1.778151,0.30103,0.477121,1.255273,0.30103,0.845098,1.079181,no
1.113943,0,1.518514,1.518514,1.518514,1.230449,0.477121,0,0,0.477121,2.798651,3.088136,1.897627,1.113943,1.778151,0.477121,0.69897,0.30103,0,0.30103,0.477121,no
1.556303,0.60206,1.770852,1.763428,1.770852,1.308137,0.60206,0,0,0.60206,2.644439,3.088136,1.770852,1.113943,1.778151,0.477121,0.69897,1.041393,0.30103,0.60206,0.90309,no
2.123852,0.954243,2.255273,2.255273,2.255273,1.956649,0.477121,0,0,0.477121,2.798651,3.088136,1.897627,1.113943,1.778151,1.146128,0.60206,1.568202,0.60206,1.079181,1.518514,no
1.041393,0.477121,1.50515,1.50515,1.50515,1.217484,0.477121,0,0,0.477121,2.798651,3.088136,1.897627,1.113943,1.778151,0.30103,0.477121,0,0,0.845098,0.30103,no
2.267172,0.30103,2.367356,2.367356,2.367356,2.068186,0.477121,0,0,0.477121,2.798651,3.088136,1.897627,1.113943,1.778151,0.954243,0.30103,1.568202,0.69897,0.954243,1.556303,no
2.167317,0.778151,2.318063,2.31597,2.320146,1.847141,0.60206,0,0,0.60206,2.644439,3.088136,1.770852,1.113943,1.778151,1.176091,0.477121,1.50515,0.69897,1,1.30103,no
1.732394,0.477121,1.939519,1.939519,1.939519,1.643453,0.477121,0,0,0.477121,2.798651,3.088136,1.897627,1.113943,1.778151,0.90309,0.477121,0.778151,0.69897,0.69897,1.20412,no
1.973128,0.60206,2.127105,2.127105,2.127105,1.829304,0.477121,0,0,0.477121,2.798651,3.088136,1.897627,1.113943,1.778151,1.255273,0.30103,1.30103,0.845098,1.113943,1.39794,no
2.209515,1.079181,2.330414,2.330414,2.330414,2.031408,0.477121,0,0,0.477121,2.798651,3.088136,1.897627,1.113943,1.778151,0.90309,0.477121,1.633468,0.69897,1.176091,1.414973,no
2.481443,1.230449,2.693727,2.655138,2.732394,1.834929,0.954243,0.477121,0.09691,0.477121,2.715586,3.088136,1.966142,1.113943,2.518514,1.322219,0.30103,1.857332,0.69897,1.278754,1.826075,no
2.506505,1.230449,2.58995,2.557507,2.603144,1.830396,0.845098,0.30103,0.068186,0.477121,2.382611,3.088136,1.610979,1.113943,1.778151,0.778151,0.69897,1.544068,0.477121,1.113943,1.431364,no
1.662758,0.778151,2.025306,1.69897,2.152288,1.10551,1.113943,0.30103,0.033424,0.60206,2.585833,3.088136,1.880814,1.113943,1.041393,0.69897,0.477121,0.90309,0.60206,0.90309,1,no
1.447158,0,1.919078,1.90309,2.045323,1.361728,0.778151,0.477121,0.146128,0.477121,2.457276,3.088136,1.62941,1.113943,1.778151,0.845098,0.477121,0.845098,1.079181,0.845098,0.845098,no
1.748188,0.477121,1.991226,1.863323,2.033424,1.211921,0.90309,0.30103,0.056905,0.477121,2.765348,3.088136,2.005567,1.113943,2.518514,0.778151,0.30103,1.230449,0.69897,1.079181,0.778151,no
2.167317,0.845098,2.523746,2.269513,2.670246,1.567262,1.146128,0.60206,0.089905,0.477121,2.508058,3.088136,1.77873,1.113943,2.518514,0.845098,0.477121,1.50515,0.60206,1.342423,1.462398,no
1.361728,0,1.838849,1.633468,1.913814,1.099335,0.90309,0.30103,0.056905,0.477121,2.765452,3.088136,2.005567,1.113943,2.518514,0.477121,0.30103,0.477121,0.30103,0.90309,0.477121,no
1.556303,0.30103,1.880814,1.690196,1.913814,1.099335,0.90309,0.30103,0.056905,0.477121,2.766941,3.088136,2.013427,1.113943,2.518514,0.60206,0.30103,1.079181,0.69897,0.30103,0.845098,no
1.973128,0.845098,2.382017,1.959041,2.547775,1.361728,1.230449,0.778151,0.117271,0.60206,2.451495,3.088136,1.744762,1.113943,2.123852,0.778151,0.30103,1.462398,0.30103,1.113943,1.342423,no
1.50515,0,1.880814,1.662758,1.977724,1.058426,1,0.60206,0.123852,0.477121,2.659384,3.088136,1.905472,1.113943,2.518514,0.477121,0.30103,0.845098,0.477121,0.845098,1,no
1.431364,0.30103,1.778151,1.579784,1.832509,1.024075,0.90309,0,0,0.477121,2.76726,3.088136,2.012247,1.113943,2.518514,0.778151,0.30103,0.477121,1.079181,0.30103,0.778151,no
1.886491,0.845098,2.064458,2.064458,2.064458,1.767156,0.477121,0.30103,0.176091,0.477121,2.79134,3.088136,1.880814,1.113943,1.886491,0.69897,0.30103,1.079181,0.30103,0.845098,1,no
2.276462,1,2.650308,2.264818,2.804139,1.457125,1.380211,0.90309,0.113943,0.69897,2.290235,3.088136,1.594945,0.477121,1.176091,0.954243,0.477121,1.342423,0.69897,1.113943,1.30103,no
2.158362,0.30103,2.305351,2.305351,2.305351,2.305351,0.30103,0,0,0.30103,1.255273,1.255273,0.954243,0.477121,1.886491,1.414973,0.30103,1.544068,0.90309,1,1.477121,no
1.886491,0.845098,2.176091,1.991226,2.269513,1.290035,1.041393,0.477121,0.079181,0.60206,2.633569,3.088136,1.898725,1.113943,2.123852,0.69897,0.30103,1.342423,0.477121,0.954243,1.278754,no
1.278754,0,1.763428,1.462398,1.851258,0.943495,1,0.477121,0.08636,0.477121,2.674144,3.088136,1.928857,1.113943,2.518514,0.477121,0.30103,0.60206,0,0.477121,0.477121,no
2.056905,0.90309,2.419956,1.724276,2.558709,1.240799,1.361728,0.954243,0.133539,0.60206,2.319855,3.088136,1.642563,1.113943,1.778151,0.477121,0.30103,1.361728,0.60206,1.255273,1.342423,no
1.39794,0.30103,1.653213,1.255273,2.068186,1.190332,0.954243,0.477121,0.09691,0.477121,2.68068,3.088136,1.945715,1.113943,2.518514,0.60206,0.30103,0.477121,0.60206,1.041393,0.60206,no
2.436163,0.90309,2.695482,2.540329,2.814248,1.547282,1.30103,0.778151,0.100371,0.60206,2.016574,3.088136,1.373464,1.113943,1.778151,1,0.69897,1.462398,0.60206,1.50515,1.20412,no
2.663701,1.30103,3.040602,2.628389,3.207365,1.815843,1.414973,0.90309,0.10721,0.60206,1.944088,3.088136,1.326336,1,1.778151,1.176091,0.477121,1.94939,0.954243,1.531479,1.770852,no
2.245513,0.954243,2.528917,2.294466,2.652246,1.413132,1.278754,0.778151,0.10721,0.60206,2.058578,3.088136,1.424228,0.90309,1.778151,0.778151,0.477121,1.342423,0.778151,1.146128,1,no
2.049218,0.69897,2.444045,2.371068,2.605305,1.417139,1.230449,0.477121,0.053078,0.60206,2.137132,3.088136,1.480725,1.113943,1.778151,1.041393,0.477121,1.568202,0.778151,1.342423,1.20412,no
2.791691,1.60206,3.075182,2.807535,3.211388,1.5989,1.633468,1,0.082785,0.69897,2.112973,3.088136,1.509337,0.477121,1.778151,1.491362,0.30103,2.257679,0.90309,1.770852,1.886491,no
2.30103,0.845098,2.725912,2.037426,2.899273,1.260548,1.672098,1.113943,0.100371,0.778151,2.123067,3.088136,1.498586,1.113943,0.845098,1.591065,0.30103,1.39794,1.755875,1.176091,1.662758,yes
2.136721,0,2.298853,2.161368,2.298853,1.703291,0.69897,0.30103,0.09691,0.30103,2.51088,3.088136,1.645913,1.113943,2.531479,1.342423,0.30103,0.90309,0.30103,0.477121,1.39794,no
2.466868,1.361728,2.973128,2.608526,3.160769,1.614792,1.568202,1,0.09691,0.778151,2.140319,3.088136,1.516271,1.113943,1.778151,1.079181,0.477121,1.690196,0.90309,1.39794,1.342423,no
2.292256,0.954243,2.414973,2.037426,2.448706,1.422426,1.079181,0.30103,0.037426,0.477121,2.202897,3.088136,1.497621,1.113943,1.778151,1.146128,0.60206,1.477121,0.954243,1.146128,1.531479,no
2.371068,1.041393,2.462398,2.448706,2.462398,1.988247,0.60206,0,0,0.477121,2.618048,3.088136,1.716003,1.113943,1.886491,0.69897,0.60206,1.113943,0.60206,1,0.69897,no
2.037426,0.477121,2.346353,2.290035,2.465383,1.867762,0.69897,0,0,0.60206,1.582631,1.70757,1.217484,1.934498,1.778151,1.39794,0.30103,1,0.778151,1.255273,1.568202,no
2.535294,1.176091,2.701568,2.603144,2.754348,2.154576,0.69897,0,0,0.477121,1.90309,2.361728,1.4843,1.322219,1.778151,1.763428,0.30103,1.50515,0.60206,1.041393,2.100371,no
2.985875,0.845098,3.165244,3.078094,3.234517,2.333205,0.954243,0.477121,0.09691,0.477121,1.828531,2.361728,1.417139,0.954243,1.778151,2.252853,0.30103,1.568202,0.477121,1.079181,2.38739,no
1.740363,0.69897,1.968483,1.954243,1.991226,1.402261,0.69897,0.477121,0.176091,0.477121,1.34733,1.643453,1.146128,0.954243,1.886491,1,0.30103,0.69897,0.69897,0.778151,1.079181,no
1.69897,0.30103,1.897627,1.892095,1.913814,1.618048,0.477121,0,0,0.477121,1.518514,1.643453,1.255273,2.08636,1.778151,0.778151,0.477121,0.90309,0.477121,0.845098,1.079181,no
2.682145,0.845098,2.823474,2.820201,2.82866,2.228529,0.69897,0.477121,0.176091,0.60206,1.423246,1.643453,1.190332,1.230449,1.778151,2.017033,0.30103,1.278754,0.477121,0.778151,2.30103,no
2.313867,0.60206,2.474216,2.462398,2.481443,1.883661,0.69897,0.30103,0.09691,0.60206,1.39794,1.643453,1.161368,1.322219,1.778151,1.662758,0.30103,0.845098,0.477121,0.69897,1.934498,no
1.944483,0.778151,2.060698,2.060698,2.060698,2.060698,0.30103,0,0,0.30103,1.146128,1.146128,1.041393,1,2.531479,0.30103,0.477121,1.230449,0,0.954243,1.322219,no
1.799341,0.60206,2.071882,2.071882,2.071882,2.071882,0.30103,0,0,0.30103,1.146128,1.146128,1.041393,1,2.531479,0.477121,0.477121,1.113943,0.30103,0.477121,0.778151,no
1.380211,0.30103,1.792392,1.792392,1.792392,1.792392,0.30103,0,0,0.30103,1.146128,1.146128,1.041393,1,2.531479,0.477121,0.30103,0.954243,0.477121,0.477121,0.60206,no
2.363612,1.146128,2.537819,2.537819,2.537819,2.537819,0.30103,0,0,0.30103,1.146128,1.146128,1.041393,1,2.531479,1.079181,0.477121,1.633468,0.30103,1.079181,1.643453,no
2.238046,0.90309,2.450249,2.31597,2.510545,1.522444,1.041393,0.477121,0.079181,0.60206,2.408749,2.951823,1.767898,1.863323,1.886491,0.845098,0.60206,1.176091,0.778151,1.255273,0.954243,no
1.977724,0.60206,2.20412,2.103804,2.262451,1.375664,0.954243,0.477121,0.09691,0.60206,2.491011,2.951823,1.829304,1.863323,1.886491,0.30103,0.60206,0.954243,0.845098,0.954243,0.30103,no
2.344392,1.079181,2.535294,2.369216,2.595496,1.565021,1.079181,0.477121,0.071882,0.69897,2.372415,2.951823,1.736795,0.90309,1.778151,0.90309,0.60206,1.176091,0.60206,1.255273,1.146128,no
1.968483,0.778151,2.187521,2.089905,2.247973,1.361728,0.954243,0.30103,0.053078,0.69897,2.487322,2.951823,1.834103,0.90309,1.778151,0.30103,0.60206,0.954243,0.69897,0.954243,0.30103,no
1.716003,0,2.120574,1.78533,2.252853,1.366423,0.954243,0.30103,0.053078,0.60206,2.565848,2.951823,1.870696,2.267172,1.176091,0.954243,0.30103,0.60206,1,0.69897,1.113943,no
1.531479,0.60206,1.78533,1.78533,1.78533,1.78533,0.30103,0,0,0.30103,1.462398,1.462398,1.146128,2.267172,2.531479,0.90309,0.30103,0,0.30103,0.477121,0.90309,no
1.892095,0.90309,2.356026,1.838849,2.531479,1.275081,1.30103,0.69897,0.082785,0.90309,2.218168,2.951823,1.554973,0.90309,0.69897,1,0.30103,1.39794,1.342423,1.041393,1.380211,yes
1.544068,0,1.851258,1.792392,1.892095,1.426023,0.60206,0,0,0.477121,2.86845,2.951823,2.170262,2.481443,2.518514,0.90309,0.30103,0,0.477121,0.477121,1,no
2.149219,0.69897,2.437751,2.225309,2.55145,1.562293,1.041393,0.30103,0.041393,0.60206,2.410102,2.951823,1.769377,1,1.886491,1.079181,0.30103,1.447158,1.113943,1.041393,1.447158,no
1.176091,0,1.342423,1.113943,1.612784,1.156246,0.60206,0,0,0.477121,2.86845,2.951823,2.170262,2.481443,2.518514,0.477121,0.30103,0,0.954243,0.477121,0.477121,no
1.462398,0,1.826075,1.544068,1.919078,1.051153,0.954243,0,0,0.778151,2.559763,2.951823,1.858838,1,1.176091,0.477121,0.30103,0.477121,0.69897,1.041393,0.477121,no
1.826075,0.30103,2.025306,2.012837,2.029384,1.732394,0.477121,0,0,0.477121,1.676694,1.812913,1.217484,0.90309,1.778151,0.778151,0.30103,1.113943,0.954243,1.113943,1.041393,no
2.155336,0.954243,2.346353,2.130334,2.403121,1.710963,0.778151,0,0,0.60206,1.515874,1.812913,1.158362,1.863323,1.778151,1,0.30103,1.447158,1.176091,1.079181,1.447158,no
2.064458,0.69897,2.298853,2.161368,2.369216,1.478999,0.954243,0.69897,0.176091,0.60206,1.311754,1.681241,1.134496,1.20412,1.778151,1.079181,0.30103,1.176091,0.477121,0.954243,1.50515,no
2.71433,1.255273,2.996074,2.826075,3.097257,1.898341,1.230449,0.69897,0.09691,0.60206,1.611511,2.10721,1.256718,1.20412,1.778151,1.591065,0.69897,1.986772,1.69897,1.50515,2.021189,no
2.176091,0.477121,2.342423,2.342423,2.342423,2.342423,0.30103,0,0,0.30103,1.230449,1.230449,1.041393,1.176091,2.531479,0.954243,0.477121,1.50515,0.30103,1.361728,1.690196,no
2.30963,0.69897,2.457882,2.457882,2.457882,2.457882,0.30103,0,0,0.30103,1.230449,1.230449,1.041393,1.176091,2.531479,1.176091,0.477121,1.653213,0.30103,1.477121,1.70757,no
1.431364,0.30103,1.681241,1.681241,1.681241,1.681241,0.30103,0,0,0.30103,1.230449,1.230449,1.041393,1.176091,2.531479,0.30103,0.30103,0.69897,0.477121,0.845098,0.778151,no
0.30103,0,1.934498,1.934498,1.934498,1.934498,0.30103,0,0,0.30103,1.230449,1.230449,1.041393,1.176091,2.531479,0,0,0,0,0,0,no
2.32838,0.477121,2.416641,2.409933,2.421604,1.729165,0.778151,0.30103,0.079181,0.477121,1.546543,1.986772,1.113943,1.968483,1.886491,1,0.30103,1.653213,0.30103,1,1.681241,no
2.0086,0.477121,2.287802,2.217484,2.305351,1.537819,0.845098,0.30103,0.068186,0.60206,2.594393,2.951823,1.914713,1.968483,1.886491,0.954243,0.30103,1.39794,0.60206,0.954243,1.342423,no
1.80618,0,2.262451,2.262451,2.262451,1.963788,0.477121,0,0,0.30103,1.748188,1.986772,1.20412,1.968483,1.886491,0.778151,0.477121,0.778151,0,0.845098,1.113943,no
2.673942,1.414973,3.1959,2.568202,3.409257,1.74484,1.681241,1.176091,0.113943,1.041393,1.998695,2.951823,1.436481,1.20412,0.30103,0,0.60206,0.30103,0.30103,0.845098,0,no
1.361728,0,1.662758,1.662758,1.662758,1.371068,0.477121,0,0,0.477121,1.716003,1.986772,1.20412,1.968483,1.778151,0.69897,0.30103,0,0.69897,0,0.69897,no
1.531479,0,1.94939,1.414973,2.064458,0.938019,1.20412,0.845098,0.146128,0.69897,2.363104,2.951823,1.704151,1.968483,1.886491,0.69897,0.30103,0,1.176091,0.778151,0.954243,no
1.944483,0.30103,2.257679,1.556303,2.376577,1.005181,1.431364,0.954243,0.117271,0.845098,2.157427,2.951823,1.529559,1.78533,0.477121,0.954243,0.30103,1.079181,1.079181,1.146128,1.255273,no
2.209515,0.477121,2.856124,2.361728,3.083144,1.575996,1.531479,0.60206,0.037426,0.778151,2.165155,2.951823,1.56573,1.322219,1.778151,1.361728,0.30103,1.568202,1.732394,1,1.556303,no
1.963788,0.778151,2.123852,2.093422,2.123852,1.653213,0.60206,0,0,0.60206,1.992686,2.10721,1.467312,1.414973,1.792392,0.90309,0.30103,1.39794,0.778151,0.954243,1.342423,no
2.167317,0.60206,2.502427,2.257679,2.634477,1.472318,1.20412,0.60206,0.079181,0.778151,2.357935,2.951823,1.691965,1.934498,1.778151,1.447158,0.30103,1.39794,0.477121,1.278754,1.612784,no
2.664642,1.255273,2.996512,2.758912,3.13226,1.725258,1.431364,1.079181,0.152288,0.845098,2.118926,2.951823,1.513484,1.230449,1.041393,0.69897,0.477121,0.30103,0.90309,1.113943,0.69897,no
0.90309,0,1.623249,1.278754,1.69897,0.962369,0.845098,0.30103,0.068186,0.60206,2.692556,2.951823,1.991979,1.968483,1.886491,0.477121,0.30103,0,0.60206,0.477121,0.477121,no
2.278754,0.69897,2.639486,2.491362,2.795185,1.628695,1.20412,0.69897,0.103804,0.477121,1.535674,1.991226,1.133539,1.531479,1.886491,1.477121,0.30103,1.431364,0.845098,1.39794,1.623249,no
2.371068,0.845098,2.750508,2.745075,2.752816,2.277219,0.60206,0.30103,0.123852,0.30103,1.60206,1.986772,1.090963,1.968483,1.886491,1.20412,0.30103,1.079181,0.30103,0.778151,1.80618,no
1.934498,0.477121,2.214844,2.209515,2.214844,1.916454,0.477121,0.30103,0.176091,0.30103,1.518514,1.556303,1.217484,1.230449,2.531479,0.30103,0.30103,0.69897,0,1.20412,1.230449,no
2.170262,0.60206,2.390935,1.919078,2.477121,1.320769,1.20412,0.60206,0.079181,0.69897,2.15797,2.850646,1.599119,1.78533,1.778151,1.20412,0.30103,1.431364,0.60206,1.113943,1.477121,no
1.079181,0,1.60206,1.568202,1.653213,0.991226,0.778151,0.30103,0.079181,0.69897,2.666518,2.951823,1.976808,1.968483,1.886491,0.30103,0.30103,0.477121,0,0.30103,0.30103,no
0.30103,0,1.986772,1.986772,1.986772,1.986772,0.30103,0,0,0.30103,1.342423,1.342423,1.041393,1.544068,2.531479,0,0,0,0,0,0,no
1.90309,0.30103,2.167317,2.082785,2.170262,1.872156,0.477121,0,0,0.30103,1.230449,1.342423,0.977724,1.462398,2.531479,0.90309,0.477121,1.113943,0,1.041393,1.113943,no
1.690196,0.30103,2.08636,2.079181,2.093422,1.623249,0.60206,0.30103,0.123852,0.30103,1.271144,1.342423,0.969882,0,2.531479,0.954243,0.477121,0.778151,0,0.90309,1.041393,no
1.462398,0,1.934498,1.934498,1.934498,1.934498,0.30103,0,0,0.30103,1.342423,1.342423,1.041393,1.544068,2.531479,0.69897,0.477121,0,0.30103,0.778151,0.69897,no
1.633468,0,2.021189,2.021189,2.021189,2.021189,0.30103,0,0,0.30103,1.342423,1.342423,1.041393,1.544068,2.531479,0.60206,0.477121,0,0.30103,0.778151,0.60206,no
1.662758,0.477121,2.068186,2.064458,2.120574,1.822822,0.477121,0.30103,0.176091,0.30103,1.342423,1.342423,1,0,2.531479,0.69897,0.477121,0.69897,0.477121,1.113943,0.845098,no
2.436163,1.361728,2.587711,2.587711,2.587711,2.587711,0.30103,0,0,0.30103,1.342423,1.342423,1.041393,1.544068,2.531479,0.90309,1.176091,1,0.477121,1.431364,1.477121,no
1.531479,0,1.908485,1.897627,1.919078,1.452247,0.60206,0,0,0.477121,1.782974,2.10721,1.355452,1.414973,1.792392,0.69897,0.477121,0.778151,0.477121,1,0.778151,no
2.176091,0.69897,2.31597,2.31597,2.31597,2.31597,0.30103,0,0,0.30103,1.342423,1.342423,1.041393,1.544068,2.531479,1.041393,0.30103,1.380211,0.477121,1,1.50515,no
1.982271,0.30103,2.187521,2.187521,2.198657,1.900367,0.477121,0.30103,0.176091,0.30103,1.342423,1.342423,1,0,2.531479,0.845098,0.477121,1.518514,0.477121,1.146128,1.39794,no
2.7348,1.041393,3.080626,2.58995,3.223236,1.726075,1.518514,1,0.10721,0.69897,2.06599,2.951823,1.505557,1.78533,1.778151,0,0.60206,0.30103,0.30103,0.778151,0,no
2.127105,0.477121,2.426511,2.409933,2.434569,1.66436,0.845098,0.30103,0.068186,0.60206,2.480481,2.951823,1.808414,1.968483,1.886491,1.20412,0.30103,1.079181,1.041393,0.69897,1.591065,no
2.152288,0.69897,2.40654,2.396199,2.416641,1.646698,0.845098,0.30103,0.068186,0.60206,2.480481,2.951823,1.808414,1.968483,1.886491,1.30103,0.30103,1.278754,1.146128,0.778151,1.518514,no
1.80618,0.778151,2.082785,2.071882,2.093422,1.40824,0.778151,0.30103,0.079181,0.60206,2.547282,2.951823,1.870404,1.968483,1.886491,0.90309,0.30103,1.079181,0.845098,0.477121,1.255273,no
1.832509,0,2.060698,2.037426,2.064458,1.304706,0.845098,0.30103,0.068186,0.60206,2.59641,2.951823,1.914713,1.968483,1.886491,1.079181,0.60206,0.30103,0.30103,0.30103,1.380211,no
1.968483,0,2.167317,2.033424,2.173186,1.409426,0.845098,0.30103,0.068186,0.60206,2.59641,2.951823,1.914713,1.968483,1.886491,1.113943,0.60206,0.845098,0.845098,0.477121,1.447158,no
2.378398,1.322219,2.727541,2.691081,2.748188,2.052309,0.778151,0.30103,0.079181,0.60206,2.521138,2.951823,1.842609,1.968483,1.886491,1.50515,0.60206,1.39794,0.90309,0.778151,1.94939,no
1.690196,0,1.968483,1.939519,1.973128,1.217484,0.845098,0.30103,0.068186,0.60206,2.59641,2.951823,1.914713,1.968483,1.886491,1.041393,0.69897,0.954243,1.146128,0.60206,1.079181,no
3.033424,1.556303,3.441066,3.254548,3.570309,2.341731,1.255273,0.69897,0.093422,0.69897,2.090117,2.951823,1.513883,1.20412,1.792392,0.30103,0.60206,0.477121,0.477121,1.041393,0.69897,no
1,0,1.653213,1.643453,1.662758,1.088136,0.69897,0.30103,0.09691,0.60206,2.611989,2.951823,1.92557,1.968483,1.886491,0.477121,0.477121,0,0.477121,0.30103,0.477121,no
1,0,1.662758,1.653213,1.672098,1.09691,0.69897,0.30103,0.09691,0.60206,2.611989,2.951823,1.92557,1.968483,1.886491,0.477121,0.477121,0,0.477121,0.30103,0.477121,no
2.603144,0.954243,3.26811,2.522444,3.506505,1.758155,1.763428,1.322219,0.130334,0.954243,1.928242,2.951823,1.355068,0,0.477121,0,0.60206,0.30103,0.30103,0.69897,0,no
2.283301,1,2.567026,2.257679,2.694605,1.530584,1.20412,0.778151,0.123852,0.69897,2.283301,2.951823,1.661529,0.845098,1.778151,0.69897,0.30103,0.90309,0,0.778151,0.845098,no
2.30103,0.845098,2.439333,2.429752,2.448706,2.149219,0.477121,0,0,0.477121,1.60206,1.681241,1.4843,1.20412,1.792392,0.90309,0.477121,1.672098,0.30103,1.414973,1.60206,no
2.342423,1.041393,2.523746,2.519828,2.528917,2.22917,0.477121,0,0,0.477121,1.60206,1.681241,1.4843,1.20412,1.792392,1.079181,0.477121,1.643453,0.477121,1.39794,1.662758,no
1.230449,0,1.146128,1.146128,1.342423,1.060698,0.477121,0,0,0.30103,1.748188,1.986772,1.20412,1.968483,1.886491,0.60206,0.477121,0,0.477121,0.60206,0.60206,no
1.322219,0,1.812913,1.447158,1.924279,0.931966,1.079181,0.477121,0.071882,0.69897,2.467134,2.951823,1.790496,1.968483,1.041393,0.69897,0.30103,0,0,0.954243,0.69897,no
1.556303,0,1.869232,1.851258,1.869232,1.574031,0.477121,0,0,0.477121,1.511883,1.681241,1.39794,1.176091,1.886491,0,0.30103,0.778151,0,0.477121,0,no
1.568202,0,3.270213,2.432969,3.563244,1.77122,1.80618,1.361728,0.130334,0.954243,1.898944,2.951823,1.368659,1.968483,0.954243,0.60206,0.477121,1.113943,0.477121,1,0.90309,no
1.792392,0.477121,2.103804,1.986772,2.190332,1.502427,0.778151,0,0,0.477121,1.956168,2.10721,1.513218,1.968483,1.886491,0.778151,0.30103,1.322219,1.079181,1.146128,1.041393,no
1.968483,0.60206,2.220108,1.792392,2.320146,1.263162,1.113943,0.477121,0.068186,0.60206,2.457003,2.951823,1.801061,1.20412,1.886491,0.845098,0.477121,1.176091,0.845098,1.079181,1.462398,no
1.897627,0,2.376577,2.017033,2.553883,1.394452,1.20412,0.60206,0.079181,0.60206,2.389042,2.951823,1.746089,1.845098,1.886491,0.954243,0.30103,1.176091,0.90309,1.041393,1.255273,no
2.267172,0.30103,2.352183,2.290035,2.369216,1.310056,1.113943,0.477121,0.068186,0.60206,1.492481,1.986772,1.072985,0,1.778151,0.69897,0.30103,1.653213,0.69897,1.079181,1.799341,no
2.209515,0.30103,2.448706,2.287802,2.555094,1.424392,1.176091,0.69897,0.11059,0.69897,2.212374,2.850646,1.633468,1.230449,1.778151,1,0.477121,1.544068,0.30103,1.30103,1.681241,no
2.161368,0.477121,2.471292,2.173186,2.599883,1.386499,1.255273,0.69897,0.093422,0.778151,2.154272,2.850646,1.591732,1.477121,1.778151,1,0.477121,1.544068,0.30103,1.30103,1.477121,no
2.064458,0.477121,2.359835,1.778151,2.468347,1.215373,1.30103,0.60206,0.064458,0.60206,2.298395,2.951823,1.658298,1.90309,1.886491,0.90309,0.30103,1.322219,1.041393,1.079181,1.447158,no
1.78533,0.30103,2.117271,1.643453,2.214844,1.199206,1.079181,0.60206,0.103804,0.60206,2.449972,2.951823,1.791761,1.230449,1.886491,0.954243,0.30103,0.845098,0.477121,0.778151,1.079181,no
2.502427,1.255273,2.733999,2.584331,2.843233,1.848805,1.041393,0.477121,0.079181,0.60206,1.832509,2.10721,1.399674,1.477121,1.792392,1.322219,0.477121,1.716003,0.30103,1.361728,1.838849,no
1.531479,0,1.799341,1.799341,1.799341,1.50515,0.477121,0,0,0.477121,1.954243,1.986772,1.462398,1.968483,1.886491,0.954243,0.30103,0.30103,0.60206,0.30103,0.954243,no
2.184691,0.90309,2.352183,2.227887,2.38739,1.695482,0.778151,0,0,0.477121,1.80618,1.986772,1.350248,1.968483,1.886491,1.079181,0.60206,1.431364,0.69897,1,1.342423,no
1.633468,0,1.880814,1.880814,1.880814,1.585461,0.477121,0,0,0.477121,1.954243,1.986772,1.462398,1.968483,1.886491,1.079181,0.30103,0,0,0,1.079181,no
1.812913,0.778151,2.012837,1.939519,2.017033,1.548144,0.60206,0,0,0.477121,1.886491,1.986772,1.386142,1.968483,1.886491,1.079181,0.30103,0.845098,0.69897,0.30103,1.30103,no
2.190332,0.477121,2.350248,2.298853,2.380211,1.68842,0.778151,0,0,0.477121,1.960946,2.342423,1.390935,1.322219,1.886491,1,0.30103,1.579784,0.477121,0.90309,1.633468,no
2.243038,0.60206,2.534026,2.404834,2.652246,1.755875,0.954243,0.477121,0.09691,0.477121,1.845098,2.10721,1.410777,1.78533,1.886491,1.431364,0.30103,1.462398,1,1.255273,1.623249,no
1.579784,0.477121,1.90309,1.880814,1.94939,1.481872,0.60206,0,0,0.477121,1.886491,1.986772,1.386142,1.968483,1.886491,0.477121,0.477121,0.954243,0.477121,0.778151,0.60206,no
3.075182,1.462398,3.275081,3.258398,3.288696,2.687306,0.69897,0,0,0.477121,1.772688,1.986772,1.30103,1.968483,1.886491,0.30103,0.30103,0.477121,0.30103,1.041393,0.69897,no
2.390935,1,2.625312,2.409933,2.7348,1.741939,1.041393,0.30103,0.041393,0.477121,1.815578,2.10721,1.376577,1.845098,1.886491,1.255273,0.477121,1.740363,0.30103,1.39794,1.690196,no
2.152288,0.845098,2.324282,2.173186,2.365488,1.596597,0.845098,0,0,0.477121,1.729732,1.986772,1.278754,1.968483,1.886491,0.954243,0.477121,1.672098,0.60206,1,1.447158,no
2.62941,1.20412,2.71265,2.710963,2.71433,2.238874,0.60206,0,0,0.477121,1.73504,1.986772,1.195069,1.968483,1.886491,1.531479,0.477121,1.653213,0.69897,0.90309,2.060698,no
1.977724,0.30103,2.198657,2.133539,2.243038,1.412629,0.90309,0,0,0.477121,1.869232,2.10721,1.419791,1.968483,1.886491,0.845098,0.477121,1.30103,0.60206,1.146128,1.113943,no
2.209515,0.477121,2.607455,2.130334,2.768638,1.326541,1.477121,1.041393,0.127105,0.778151,2.149219,2.951823,1.515344,0,1.778151,1.531479,0.30103,1.414973,1.380211,1.322219,1.633468,no
2.222716,0.954243,2.418301,2.38739,2.444045,1.673666,0.845098,0,0,0.477121,2.782114,3.088136,2.046612,1.113943,2.518514,0.90309,0.477121,1.643453,0.60206,1.361728,1.462398,no
1.414973,0,1.491362,1.342423,1.662758,1.088136,0.69897,0,0,0.477121,2.934625,3.088136,2.168055,1.113943,2.518514,0.477121,0.30103,0.477121,0,0.90309,0.477121,no
1.556303,0.30103,1.869232,1.740363,1.892095,1.306425,0.69897,0,0,0.477121,2.934625,3.088136,2.168055,1.113943,2.518514,0.60206,0.30103,1.079181,0.30103,0.30103,0.845098,no
2.715167,1.531479,2.90309,2.801404,2.974512,1.682145,1.322219,0.845098,0.113943,0.69897,2.29787,3.088136,1.639486,1.113943,1.778151,1.113943,0.60206,1.763428,0.69897,1.612784,1.612784,no
1.968483,0.845098,2.173186,2.056905,2.232996,1.544068,0.778151,0,0,0.477121,2.853941,3.088136,2.100371,1.113943,2.518514,0.778151,0.30103,1.462398,0.30103,1.113943,1.342423,no
1.50515,0,1.80618,1.653213,1.851258,1.267172,0.69897,0,0,0.477121,2.934625,3.088136,2.168055,1.113943,2.518514,0.477121,0.30103,0.845098,0,0.845098,1,no
1.431364,0.30103,1.39794,1.278754,1.531479,0.966142,0.69897,0,0,0.477121,2.934625,3.088136,2.168055,1.113943,2.518514,0.778151,0.30103,0.477121,1.041393,0.30103,0.778151,no
2.702431,1.531479,2.85187,2.814913,2.888179,1.780893,1.146128,0.477121,0.060698,0.69897,2.129335,3.088136,1.481586,1.113943,1.778151,1.113943,0.60206,1.740363,0.778151,1.556303,1.60206,no
2.060698,0.954243,2.322219,2.053078,2.414973,1.429752,1.041393,0.477121,0.079181,0.60206,2.31618,2.850646,1.638489,2.017033,1.863323,1,0.60206,0.845098,0.90309,1.041393,1.079181,no
1.954243,0.60206,2.117271,2.049218,2.120574,1.650016,0.60206,0,0,0.477121,2.023952,2.252853,1.386142,2.017033,1.863323,1.230449,0.477121,0.778151,0.477121,0.90309,1.342423,no
1.69897,0.60206,1.908485,1.826075,1.908485,1.442009,0.60206,0,0,0.477121,1.994185,2.252853,1.335859,2.017033,1.863323,0.954243,0.477121,0.69897,0.477121,0.845098,0.954243,no
1.770852,0.69897,1.963788,1.819544,1.977724,1.296665,0.778151,0,0,0.477121,2.002598,2.342423,1.322219,2.017033,1.863323,1,0.477121,0.69897,0.60206,0.69897,1,no
1.681241,0.778151,1.963788,1.716003,2.021189,1.09899,1,0.30103,0.045323,0.60206,2.361312,2.850646,1.678245,2.017033,1.863323,1.041393,0.477121,0.69897,1.079181,0.845098,1.041393,no
1.079181,0.30103,1.518514,1.518514,1.518514,1.518514,0.30103,0.30103,0.30103,0.30103,1.113943,1.113943,1,2.498311,2.681241,0.477121,0.60206,0.30103,0,0.30103,0.60206,no
1.977724,0.90309,2.187521,1.929419,2.235528,1.257679,1.041393,0.30103,0.041393,0.69897,2.321805,2.850646,1.660865,2.017033,1.845098,1.041393,0.477121,1,0.69897,0.90309,1.113943,no
1.462398,0.30103,1.792392,1.653213,1.845098,1.261263,0.69897,0,0,0.477121,1.940765,2.342423,1.322219,2.209515,1.863323,0.778151,0.60206,0.69897,0.60206,0.90309,0.778151,no
1.643453,0.60206,1.886491,1.778151,1.919078,1.452247,0.60206,0,0,0.477121,2.023952,2.252853,1.386142,2.017033,1.863323,0.845098,0.60206,1.041393,0.69897,0.778151,1,no
1.845098,0.60206,2.184691,1.662758,2.307496,1.251151,1.113943,0.477121,0.068186,0.69897,2.295567,2.850646,1.653984,2.017033,1.845098,1.113943,0.477121,1,1.113943,0.778151,1.20412,no
1.041393,0.30103,1.50515,1.342423,1.531479,1.079181,0.60206,0.30103,0.123852,0.30103,2.134591,2.342423,1.500648,2.378398,2.681241,0.477121,0.69897,0.30103,0.60206,0.60206,0.477121,no
1.799341,0.60206,1.982271,1.819544,1.982271,1.514149,0.60206,0,0,0.477121,2.219244,2.361728,1.605628,2.017033,1.863323,1.079181,0.477121,0.69897,0.477121,0.778151,1.079181,no
2.684845,1.518514,2.883661,2.232996,2.96895,1.698535,1.30103,0.477121,0.045323,0.69897,2.131009,2.850646,1.530072,2.017033,1.845098,1.477121,0.954243,0.90309,0.845098,1.113943,1.50515,yes
1.763428,0.60206,1.977724,1.838849,2.004321,1.247237,0.845098,0,0,0.477121,1.946943,2.342423,1.271144,2.017033,1.863323,1.079181,0.477121,0.69897,0.69897,0.778151,1.079181,no
1.556303,0.778151,1.792392,1.716003,1.792392,1.328991,0.60206,0,0,0.477121,1.968483,2.252853,1.278754,2.017033,1.863323,0.845098,0.477121,0.69897,0.477121,0.778151,0.90309,no
1.690196,0.60206,1.897627,1.80618,1.90309,1.43664,0.60206,0,0,0.477121,1.992686,2.252853,1.293804,2.017033,1.863323,0.954243,0.30103,0.69897,0.60206,0.60206,1,no
1.579784,0.60206,1.819544,1.724276,1.832509,1.367915,0.60206,0,0,0.477121,2.219244,2.361728,1.605628,2.017033,1.863323,0.845098,0.477121,0.60206,0.477121,0.69897,0.845098,no
1.690196,0.69897,1.959041,1.544068,2.025306,1.150142,0.954243,0.30103,0.053078,0.477121,2.06774,2.361728,1.462398,2.017033,1.863323,0.90309,0.477121,0.60206,0.845098,0.69897,0.954243,no
1.544068,0.60206,1.819544,1.653213,1.851258,1.267172,0.69897,0,0,0.477121,2.117271,2.342423,1.423246,2.017033,1.863323,0.845098,0.60206,0.69897,0.60206,0.845098,0.845098,no
1.20412,0.477121,1.591065,1.591065,1.591065,1.591065,0.30103,0,0,0.30103,1.662758,1.662758,1.462398,2.292256,2.681241,0.60206,0.60206,0.60206,0.30103,0.477121,0.60206,no
1.991226,0.477121,2.217484,1.908485,2.252853,1.317646,1,0.30103,0.045323,0.60206,2.360253,2.850646,1.675137,2.017033,1.863323,1,0.30103,1.041393,1.819544,1.079181,1.278754,yes
1.832509,0.778151,2.060698,1.623249,2.117271,1.072985,1.113943,0.69897,0.123852,0.60206,2.238673,2.850646,1.574031,2.017033,1.863323,1.079181,0.477121,0.90309,0.845098,0.90309,1.278754,no
1.531479,0.69897,1.929419,1.477121,1.973128,1.155032,0.90309,0.30103,0.056905,0.477121,2.012837,2.342423,1.364363,2.017033,1.863323,0.845098,0.60206,0.477121,0.778151,0.845098,0.90309,no
1.653213,0.60206,1.863323,1.755875,1.863323,1.278754,0.69897,0,0,0.477121,2.220108,2.342423,1.531479,2.017033,1.863323,0.954243,0.60206,0.845098,0.845098,0.954243,1,no
1.431364,0.60206,1.50515,1.146128,1.591065,1.021189,0.69897,0,0,0.477121,2.060698,2.252853,1.40654,2.017033,1.863323,0.778151,0.60206,0.30103,0.69897,0.778151,0.778151,no
2.056905,0.60206,2.201397,2.09691,2.20412,1.515874,0.778151,0.30103,0.079181,0.477121,2.071882,2.342423,1.450249,2.017033,1.863323,1.380211,0.477121,0.778151,0.778151,0.778151,1.39794,no
1.414973,0.477121,1.70757,1.672098,1.70757,1.414973,0.477121,0,0,0.477121,1.778151,1.944483,1.278754,2.209515,1.863323,0.69897,0.477121,0.477121,0.477121,0.69897,0.778151,no
1.531479,0.69897,1.591065,1.079181,1.838849,1.164353,0.778151,0.30103,0.079181,0.477121,2.127753,2.342423,1.456366,2.017033,1.863323,0.845098,0.60206,0.69897,0.69897,0.778151,0.845098,no
1.880814,0.60206,2.161368,1.897627,2.255273,1.368845,0.954243,0.30103,0.053078,0.60206,2.40654,2.850646,1.723291,2.017033,1.863323,1.176091,0.60206,0.954243,0.845098,1,1.230449,no
1.518514,0.477121,1.832509,1.732394,1.875061,1.198657,0.778151,0,0,0.60206,2.50974,2.850646,1.832509,2.209515,1.863323,0.778151,0.30103,0.90309,1.278754,1.041393,0.778151,no
1.579784,0.69897,1.886491,1.662758,1.944483,1.128076,0.90309,0,0,0.60206,2.459392,2.850646,1.768712,2.017033,1.863323,0.90309,0.60206,0.90309,0.845098,0.845098,0.90309,no
1.812913,1,2.079181,1.69897,2.149219,1.137671,1.079181,0.69897,0.133539,0.60206,2.289232,2.850646,1.625107,2.017033,1.863323,0.954243,0.477121,1,0.90309,0.778151,1.146128,no
1.740363,0.60206,2,1.954243,2,1.531479,0.60206,0,0,0.477121,2.210399,2.342423,1.49596,2.017033,1.863323,1.079181,0.60206,1,0.778151,0.90309,1.146128,no
1.079181,0,1.041393,1.041393,1.230449,1.230449,0.30103,0,0,0.30103,2.247973,2.247973,1.623249,2.652246,2.681241,0.477121,0.60206,0.30103,0.60206,0.60206,0.477121,no
1.176091,0.30103,1.740363,1.414973,1.863323,1.113943,0.845098,0,0,0.477121,2.46712,2.850646,1.793581,2.44248,2.518514,0.60206,0.477121,0.477121,0.477121,0.477121,0.60206,no
1.690196,0.30103,1.944483,1.845098,1.995635,1.40654,0.69897,0,0,0.477121,2.109747,2.342423,1.427324,2.017033,1.863323,0.954243,0.60206,0.90309,0.69897,0.845098,0.954243,no
1.740363,0.477121,2.082785,1.812913,2.193125,1.178689,1.079181,0.477121,0.071882,0.69897,2.280009,2.850646,1.609914,2.017033,1.845098,1.041393,0.60206,0.845098,0.845098,1,1.113943,no
1.662758,0.477121,1.880814,1.812913,1.886491,1.30103,0.69897,0.30103,0.09691,0.477121,1.971971,2.252853,1.375664,2.017033,1.863323,1,0.477121,0.778151,0.477121,0.778151,1.041393,no
1.740363,0.60206,2.0086,1.724276,2.071882,1.248219,0.90309,0,0,0.60206,2.459392,2.850646,1.768712,2.017033,1.863323,1.079181,0.477121,0.69897,0.954243,0.90309,1.113943,no
1.755875,0.60206,1.924279,1.799341,1.934498,1.255273,0.778151,0,0,0.477121,2.146748,2.342423,1.471292,2.017033,1.863323,0.954243,0.477121,0.954243,0.845098,0.778151,1.041393,no
1.176091,0,1.724276,1.579784,1.838849,1.090963,0.845098,0,0,0.60206,2.485963,2.850646,1.807332,2.209515,1.863323,0.60206,0.60206,0.477121,0.477121,0.69897,0.60206,no
1.643453,0.69897,1.934498,1.778151,2,1.180126,0.90309,0,0,0.60206,2.459392,2.850646,1.768712,2.017033,1.863323,0.954243,0.60206,0.845098,0.90309,0.954243,1,no
1.556303,0.69897,1.857332,1.633468,1.908485,1.094471,0.90309,0,0,0.60206,2.459392,2.850646,1.768712,2.017033,1.863323,0.845098,0.60206,0.778151,0.845098,0.845098,0.845098,no
1.477121,0.69897,1.740363,1.591065,1.740363,1.161368,0.69897,0.30103,0.09691,0.477121,2.103804,2.342423,1.419129,2.017033,1.863323,0.778151,0.60206,0.69897,0.477121,0.778151,0.778151,no
1.176091,0,0.90309,0.69897,1.518514,1.067071,0.60206,0,0,0.477121,2.060698,2.342423,1.426023,2.209515,1.863323,0.60206,0.60206,0.477121,0.60206,0.60206,0.60206,no
2.012837,0.69897,2.240549,2,2.296665,1.46449,0.90309,0,0,0.60206,2.459392,2.850646,1.768712,2.017033,1.863323,0.90309,0.60206,0.778151,0.90309,0.954243,0.954243,no
1.681241,0.69897,1.94939,1.579784,2.004321,1.041393,1.041393,0.30103,0.041393,0.69897,2.318689,2.850646,1.641474,2.017033,1.845098,1,0.60206,0.90309,0.845098,0.90309,1.041393,no
1.556303,0.778151,1.792392,1.716003,1.792392,1.328991,0.60206,0,0,0.477121,1.970021,2.252853,1.286232,2.017033,1.863323,0.845098,0.477121,0.778151,0.477121,0.778151,0.90309,no
1.633468,0.69897,1.851258,1.763428,1.857332,1.392169,0.60206,0,0,0.477121,1.992686,2.252853,1.293804,2.017033,1.863323,0.90309,0.477121,0.69897,0.477121,0.845098,0.954243,no
1.812913,0.69897,1.991226,1.897627,2,1.410777,0.69897,0.30103,0.09691,0.477121,1.877947,2.252853,1.217484,2.017033,1.863323,1.079181,0.30103,0.845098,0.60206,0.60206,1.146128,no
1.431364,0.30103,1.716003,1.716003,1.716003,1.716003,0.30103,0,0,0.30103,1.322219,1.322219,1.041393,2.133539,2.681241,0.69897,0.477121,0.60206,0.477121,0.69897,0.69897,no
1.477121,0.69897,1.792392,1.50515,1.832509,1.024075,0.90309,0,0,0.60206,2.459392,2.850646,1.768712,2.017033,1.863323,0.845098,0.477121,0.69897,1.342423,0.778151,0.845098,no
1.544068,0.69897,1.591065,1.30103,1.653213,1.079181,0.69897,0,0,0.477121,2.220108,2.342423,1.531479,2.017033,1.863323,0.778151,0.477121,0.60206,0.778151,0.778151,0.845098,no
1.568202,0.30103,1.832509,1.812913,1.851258,1.556303,0.477121,0,0,0.30103,2.023252,2.252853,1.243038,2.017033,2.681241,0.69897,0.60206,0.477121,0.477121,0.778151,0.69897,no
1.612784,0.30103,1.908485,1.851258,1.954243,1.658011,0.477121,0,0,0.30103,2.023252,2.252853,1.243038,2.017033,2.681241,1,0.69897,0.778151,0.30103,0.90309,1,no
2.260071,0.954243,2.385606,2.385606,2.385606,2.385606,0.30103,0,0,0.30103,2.252853,2.252853,1.414973,2.017033,2.681241,1.20412,0.30103,1.041393,0.60206,0.845098,1.361728,no
2.758912,1.591065,2.972666,2.426511,3.084934,1.790637,1.322219,0.778151,0.09691,0.778151,2.226858,2.951823,1.636989,1.799341,1.342423,1.568202,0.30103,1.342423,1.518514,1.414973,1.90309,yes
1.342423,0.30103,2.037426,1.863323,2.217484,1.387923,0.90309,0.30103,0.056905,0.477121,2.537643,2.951823,1.881613,2.553883,2.518514,0.69897,0.477121,0.69897,0,0.778151,0.69897,no
2.056905,0.477121,2.230449,2.178977,2.264818,1.792392,0.60206,0.477121,0.222716,0.30103,1.462398,1.69897,1.195069,1.113943,2.681241,1.255273,0.30103,1.230449,0.845098,1.146128,1.414973,no
1.50515,0,2.075547,1.477121,2.33646,1.137037,1.255273,0.477121,0.049218,0.69897,2.221805,2.951823,1.649237,1.20412,1.845098,0,0.30103,0,0.477121,0,0,yes
2.721811,1.322219,3.073352,2.456366,3.192846,1.570893,1.643453,0.845098,0.056905,0.845098,2.060887,2.951823,1.516006,0.778151,1.845098,1.653213,0.30103,1.892095,1.78533,1.431364,2.170262,yes
1.851258,0.477121,2.733197,2.285557,2.969416,1.440909,1.556303,0.954243,0.089905,0.69897,2.142045,2.951823,1.535167,2.278754,1.863323,1.176091,0.30103,1.361728,1.863323,1.079181,1.230449,no
1.973128,0.30103,2.32838,1.959041,2.465383,1.402261,1.113943,0.778151,0.152288,0.60206,1.792392,2.361728,1.431364,2.222716,1.845098,0.90309,0.30103,1.531479,0.477121,1.041393,1.278754,no
2.152288,0.845098,2.788875,2.103804,3.006038,1.541205,1.491362,0.778151,0.068186,0.778151,2.192846,2.951823,1.580583,0.778151,1.041393,1.462398,0.30103,1.623249,1.322219,1.342423,1.531479,no
2.053078,0.845098,2.557507,2.40654,2.756636,1.651762,1.146128,0.69897,0.117271,0.477121,2.422491,2.951823,1.776483,1.113943,2.518514,1.20412,0.30103,1.568202,1.113943,1,1.278754,no
1.716003,0.69897,1.944483,1.939519,1.982271,1.393575,0.69897,0,0,0.30103,1.976579,2.10721,1.525045,0.778151,2.681241,0.845098,0.30103,1.079181,1.414973,1.322219,0.954243,no
1.50515,0,1.977724,1.716003,2.127105,1.155336,1.041393,0,0,0.60206,2.523486,2.951823,1.850646,0.778151,2.123852,0.477121,0.30103,1.113943,0.477121,0.954243,0.69897,yes
1.518514,0,1.799341,1.230449,2.089905,1.120574,1.041393,0,0,0.778151,2.432809,2.951823,1.799341,2.222716,1.845098,0.477121,0.30103,1.113943,0.477121,1.041393,0.69897,yes
2.060698,0.90309,2.489958,2.290035,2.658965,1.885531,0.845098,0,0,0.477121,2.015653,2.361728,1.539954,2.332438,1.845098,1.278754,0.30103,1.30103,0.30103,0.90309,1.447158,no
2.056905,0.778151,2.264818,2.152288,2.320146,1.724276,0.69897,0.30103,0.09691,0.477121,1.908485,2.361728,1.4843,1.113943,1.845098,1.278754,0.30103,1.447158,1.079181,1.176091,1.361728,no
2.457882,0.90309,2.892095,2.206826,3.071514,1.415974,1.681241,1.176091,0.113943,0.778151,2.057133,2.951823,1.484727,1.556303,1.845098,1.531479,0.30103,1.778151,1.740363,1.176091,1.908485,no
1.897627,0.477121,2.146128,1.838849,2.1959,1.311754,0.954243,0.30103,0.053078,0.60206,2.491544,2.951823,1.836514,2.278754,1.845098,1.176091,0.30103,1.146128,0.60206,0.90309,1.230449,no
2.103804,0.778151,2.571709,2.152288,2.756636,1.538197,1.255273,0.778151,0.11059,0.477121,2.287152,2.951823,1.645815,1.113943,2.518514,1.322219,0.30103,1.556303,0.845098,1.146128,1.491362,no
1.819544,0.778151,2.113943,1.968483,2.181844,1.417804,0.845098,0,0,0.60206,2.676849,2.951823,1.973128,2.677607,2.123852,1.176091,0.30103,0.954243,0.778151,0.69897,1.20412,no
2.041393,0.954243,2.436163,1.643453,2.58995,1.289589,1.342423,0.845098,0.11059,0.60206,2.24937,2.951823,1.613313,2.071882,1.041393,0.60206,0.30103,1.612784,0.477121,0.90309,1.579784,no
2.045323,0.778151,2.318063,2.103804,2.423246,1.481872,1,0.30103,0.045323,0.69897,2.526766,2.951823,1.840921,2.38739,1.845098,1.176091,0.30103,1.431364,0.69897,1,1.447158,no
2.31597,0.778151,2.732394,2.380211,2.910624,1.688598,1.255273,0.778151,0.11059,0.69897,2.299115,2.951823,1.661623,1.995635,1.863323,1.431364,0.30103,1.544068,1.20412,1.079181,1.778151,no
2.238046,0.954243,2.518514,2.130334,2.634477,1.445293,1.230449,0.60206,0.075547,0.69897,2.295017,2.951823,1.705949,1.113943,1.845098,1.462398,0.30103,1.672098,1.518514,1.30103,1.643453,no
2.20412,0.69897,2.617,2.225309,2.789581,1.461649,1.361728,0.60206,0.056905,0.778151,2.242914,2.951823,1.618048,1.851258,1.863323,1.342423,0.30103,1.518514,1.380211,1.176091,1.653213,no
1.431364,0.30103,1.851258,1.591065,1.954243,1.137037,0.90309,0.30103,0.056905,0.477121,2.645422,2.951823,1.960423,2.555094,2.518514,0.30103,0.30103,0.845098,0,0.90309,0.60206,no
2.123852,1.278754,2.260071,2.260071,2.260071,2.260071,0.30103,0,0,0.30103,1.838849,1.838849,1.579784,0.778151,2.681241,0.60206,0.30103,0.845098,0.477121,0.778151,1.770852,no
1.643453,0.30103,1.857332,1.857332,1.857332,1.857332,0.30103,0,0,0.30103,1.838849,1.838849,1.579784,0.778151,2.681241,0.90309,0.30103,1,0.477121,0.69897,1.041393,no
1.612784,0.477121,2.320146,1.690196,2.545307,1.247237,1.342423,0.477121,0.041393,0.60206,2.288227,2.951823,1.64953,0.778151,2.123852,0.845098,0.30103,0.69897,0.69897,0.90309,0.954243,no
2.053078,0.60206,2.190332,2.190332,2.190332,2.190332,0.30103,0,0,0.30103,1.838849,1.838849,1.579784,0.778151,2.681241,1.342423,0.30103,1.414973,0.477121,0.90309,1.50515,no
2.004321,0.60206,2.152288,2.152288,2.152288,2.152288,0.30103,0,0,0.30103,1.838849,1.838849,1.579784,0.778151,2.681241,1.113943,0.30103,1.361728,0.477121,1,1.255273,no
1.892095,0,2.056905,2.056905,2.056905,2.056905,0.30103,0,0,0.30103,1.838849,1.838849,1.579784,0.778151,2.681241,1.079181,0.30103,1.113943,0.477121,0.69897,1.255273,no
1.491362,0.60206,1.755875,1.755875,1.755875,1.755875,0.30103,0,0,0.30103,1.838849,1.838849,1.579784,0.778151,2.681241,0.778151,0.30103,1.079181,0.60206,0.477121,0.90309,no
1.973128,0.30103,2.133539,2.133539,2.133539,2.133539,0.30103,0,0,0.30103,1.838849,1.838849,1.579784,0.778151,2.681241,1.041393,0.30103,1.361728,0.477121,0.845098,1.20412,no
2.815578,1.462398,3.129368,2.592177,3.268578,1.770631,1.518514,1.079181,0.127105,0.60206,1.500099,2.361728,1.202488,1.851258,1.845098,1.653213,0.477121,2.158362,0.477121,1.770852,2.220108,yes
1.991226,0.69897,2.374748,2.187521,2.463893,1.571126,0.954243,0.778151,0.212188,0.60206,1.585461,2.361728,1.193959,1.851258,1.845098,0.90309,0.30103,1.30103,0.477121,0.778151,1.146128,no
2.064458,1.146128,2.378398,2.230449,2.511883,1.447158,1.113943,0.60206,0.09691,0.60206,1.681241,2.361728,1.23477,1.851258,1.845098,0.845098,0.30103,1.230449,0.477121,1.278754,1.716003,yes
2.948413,1.531479,3.217221,2.672098,3.343212,1.68922,1.672098,0.90309,0.060698,0.845098,2.002252,2.951823,1.486147,0.778151,1.342423,1.146128,0.477121,1.544068,0.69897,1.255273,1.39794,no
1.491362,0,1.929419,1.740363,2.025306,1.267172,0.845098,0.30103,0.068186,0.60206,2.584139,2.951823,1.910251,2.334454,1.863323,0.778151,0.477121,0.778151,0.477121,0.778151,0.778151,no
1.380211,0,1.819544,1.70757,1.913814,1.235528,0.778151,0,0,0.477121,2.671913,2.951823,2.004321,2.609594,2.518514,0.778151,0.30103,0.60206,0,0.69897,0.778151,no
3.205746,2.161368,3.545678,2.951823,3.700098,2.379614,1.342423,0.845098,0.11059,0.69897,1.65089,2.361728,1.299943,2.09691,1.845098,1.857332,0.477121,2.269513,0.778151,1.763428,2.475671,yes
2.326336,1.322219,2.474216,2.474216,2.474216,2.474216,0.30103,0,0,0.30103,0.69897,0.69897,0.477121,2.021189,2.681241,1,0.60206,1.544068,0.30103,0.778151,1.681241,no
2.432969,1.380211,3.24279,2.947924,3.493458,2.453456,1.079181,0.60206,0.103804,0.60206,1.736795,2.361728,1.361728,2.320146,1.845098,1,0.60206,1.491362,0.778151,1.322219,1.755875,no
1.380211,0,2.4843,2.480007,2.745855,2.445604,0.477121,0,0,0.477121,1,1.176091,0.653213,2.021189,1.863323,0.69897,0.69897,0.30103,0,0.477121,0.69897,no
2.531479,0.778151,2.641474,2.287802,2.781037,1.675595,1.146128,0.477121,0.060698,0.60206,2.368789,2.951823,1.768564,2.278754,1.845098,1.623249,0.30103,1.792392,0.477121,1.447158,2,yes
1.39794,0.30103,2.775974,2.267172,3.056905,2.06032,1.041393,0.477121,0.079181,0.60206,1.591065,2.361728,1.214844,2.021189,1.845098,0.69897,0.69897,0.30103,0.477121,0.90309,0.69897,no
2.463893,1.322219,2.580925,2.580925,2.580925,2.580925,0.30103,0,0,0.30103,1.113943,1.113943,0.69897,0,2.681241,0.954243,0.60206,1.518514,0.30103,0.778151,1.755875,no
2.392697,1.278754,2.522444,2.522444,2.522444,2.522444,0.30103,0,0,0.30103,1.113943,1.113943,0.69897,0.60206,2.681241,0.954243,0.60206,1.462398,0.30103,0.778151,1.70757,no
1.672098,0,1.954243,1.819544,2.033424,1.350248,0.778151,0.69897,0.255273,0.30103,1.760422,2.361728,1.338456,2.220108,2.681241,0.778151,0.477121,1.146128,0.30103,0.60206,1.079181,no
1.60206,0,1.863323,1.832509,1.913814,1.618048,0.477121,0,0,0.30103,2.091667,2.361728,1.607455,2.332438,2.681241,0.778151,0.477121,0.60206,0.30103,0.477121,0.778151,no
2.230449,0.477121,2.376577,2.264818,2.423246,1.587823,0.90309,0.60206,0.155336,0.60206,1.48728,1.991226,1.146128,1.278754,1.863323,1.146128,0.30103,1.544068,0.69897,1.041393,1.633468,yes
1.982271,0.30103,2.220108,2.127105,2.292256,1.819544,0.60206,0,0,0.30103,2.022552,2.361728,1.598462,0.778151,2.681241,0.778151,0.477121,1.462398,0.30103,1.041393,1.230449,no
1.977724,0.30103,2.255273,2.136721,2.350248,1.516668,0.90309,0.69897,0.1959,0.477121,1.78533,2.361728,1.37767,1.278754,1.982271,0.845098,0.477121,1.623249,0.477121,1.113943,1.322219,yes
1.954243,0.477121,2.136721,2.068186,2.178977,1.70757,0.60206,0.477121,0.222716,0.477121,1.041393,1.20412,0.884795,2.064458,1.863323,0.778151,0.60206,1.113943,0.30103,0.60206,1.041393,no
1.380211,0,1.740363,1.716003,1.792392,1.498311,0.477121,0,0,0.30103,2.091667,2.361728,1.607455,2.332438,2.681241,0.778151,0.477121,0.60206,0.30103,0.477121,0.778151,no
1.50515,0,1.763428,1.763428,1.763428,1.763428,0.30103,0,0,0.30103,1.041393,1.041393,0.778151,2.285557,2.681241,0.778151,0.477121,0.845098,0.30103,0.60206,0.845098,no
1.982271,0.69897,2.348305,1.869232,2.495544,1.658679,0.90309,0.477121,0.11059,0.60206,1.732394,2.361728,1.310268,1.30103,1.342423,0.90309,0.477121,1.113943,0.477121,0.69897,1.146128,yes
1.39794,0,1.690196,1.690196,1.690196,1.690196,0.30103,0,0,0.30103,2.361728,2.361728,1.857332,2.332438,2.681241,0.778151,0.477121,0.60206,0.30103,0.60206,0.845098,no
1.447158,0.477121,1.50515,1.380211,1.662758,1.371068,0.477121,0.30103,0.176091,0.30103,2.077368,2.361728,1.596597,2.220108,2.681241,0.778151,0.30103,0.477121,0.60206,0.30103,0.778151,no
1.94939,0,2.127105,1.857332,2.149219,1.678245,0.60206,0,0,0.477121,2.11284,2.361728,1.650016,1.851258,1.982271,1.041393,0.477121,1.380211,0.477121,0.845098,1.414973,no
2.332438,1,2.621176,2.419956,2.650308,2.051153,0.69897,0.477121,0.176091,0.477121,1.858838,2.361728,1.447158,2.100371,1.863323,1.278754,0.30103,1.518514,0.477121,0.778151,1.845098,no
1.50515,0,1.763428,1.763428,1.763428,1.763428,0.30103,0,0,0.30103,1.041393,1.041393,0.778151,2.285557,2.681241,0.778151,0.477121,0.90309,0.30103,0.60206,0.845098,no
2.758155,1.20412,3.342028,2.574031,3.568319,1.696182,1.886491,1.342423,0.10721,1,1.835691,2.951823,1.325105,1.230449,0.60206,1.380211,0.60206,2.093422,0.69897,1.755875,2.11059,yes
1.176091,0,1.20412,1.20412,1.447158,1.447158,0.30103,0,0,0.30103,2.361728,2.361728,1.857332,2.332438,2.681241,0.60206,0.477121,0.30103,0.30103,0.30103,0.60206,yes
1.50515,0,1.763428,1.763428,1.763428,1.763428,0.30103,0,0,0.30103,0.845098,0.845098,0.69897,1.857332,1.342423,0.778151,0.477121,0.90309,0.30103,0.60206,0.845098,no
1.50515,0,1.763428,1.763428,1.763428,1.763428,0.30103,0,0,0.30103,1.579784,1.579784,1.30103,1.799341,1.342423,0.778151,0.477121,0.90309,0.30103,0.60206,0.845098,no
1.968483,0,2.164353,2.09691,2.212188,1.740363,0.60206,0,0,0.30103,2.060698,2.361728,1.605628,1.851258,2.681241,1.146128,0.30103,1.230449,1.278754,0.845098,1.380211,no
1.447158,0,1.724276,1.724276,1.724276,1.724276,0.30103,0,0,0.30103,2.361728,2.361728,1.857332,2.332438,2.681241,0.778151,0.477121,0.69897,0.30103,0.60206,0.845098,no
1.380211,0,1.755875,1.716003,1.812913,1.348889,0.60206,0,0,0.30103,1.925982,2.361728,1.462398,1.672098,2.681241,0.778151,0.477121,0.60206,0.30103,0.60206,0.778151,no
1.799341,0,2.068186,1.778151,2.139879,1.210051,1,0.60206,0.123852,0.60206,2.434745,2.951823,1.802363,2.257679,1.863323,1.079181,0.30103,1.113943,0.69897,0.60206,1.146128,no
2.20412,0.60206,2.294466,2.287802,2.30103,2.002166,0.477121,0,0,0.30103,1.4843,1.643453,1.322219,2.274158,2.681241,0.845098,0.30103,1.041393,0.477121,0.60206,1.851258,yes
2.576341,0.60206,2.778151,2.583199,2.870989,1.798167,1.113943,0.60206,0.09691,0.845098,1.243038,1.70757,0.954243,1.230449,1.322219,1.079181,0.30103,1.892095,0.477121,1.278754,1.755875,no
2.893762,1.20412,3.221675,2.436163,3.358506,1.644044,1.732394,1.079181,0.082785,0.954243,1.951872,2.951823,1.420945,1.113943,0.845098,1.770852,0.30103,2.021189,1.653213,1.716003,2.079181,no
2.155336,0.60206,2.432969,2.120574,2.550228,1.4843,1.113943,0.845098,0.176091,0.60206,2.150511,3.088136,1.480725,2.100371,1.863323,0.90309,0.30103,1.633468,0.30103,1.176091,1.431364,yes
2.049218,0.30103,2.269513,2.235528,2.326336,1.635484,0.778151,0,0,0.477121,1.334454,1.579784,1.120574,1.78533,1.342423,0.90309,0.30103,1.361728,0.477121,1,1.414973,no
2.212188,0.845098,2.324282,2.324282,2.324282,2.324282,0.30103,0,0,0.30103,1.579784,1.579784,1.30103,1.799341,1.342423,0.90309,0.30103,1.39794,0.477121,1.041393,1.579784,no
1.544068,0.30103,1.944483,1.944483,1.944483,1.944483,0.30103,0,0,0.30103,1.579784,1.579784,1.30103,1.799341,1.342423,0.477121,0.30103,1.041393,0.69897,0.778151,0.845098,no
1.819544,0.30103,1.963788,1.963788,1.963788,1.963788,0.30103,0,0,0.30103,1.447158,1.447158,1.30103,1.462398,0.845098,0.60206,0.477121,0.778151,0.30103,0.845098,1.176091,yes
1.716003,0.30103,1.90309,1.90309,1.90309,1.90309,0.30103,0,0,0.30103,1.662758,1.662758,1.462398,2.292256,2.681241,0.845098,0.477121,0.90309,0.60206,0.845098,0.954243,yes
2.20412,0,2.382017,2.178977,2.431364,1.445604,1.041393,0.60206,0.113943,0.778151,1.532754,2.10721,1.209515,1.60206,0.60206,1.113943,0.477121,1.39794,0.60206,1.342423,1.50515,yes
3.010724,1.146128,3.131298,3.053078,3.157759,2.205935,1,0.30103,0.045323,0.69897,1.712313,2.361728,1.335859,1.462398,0.845098,2.298853,0.30103,1.662758,0.845098,1.278754,2.591065,yes
2.075547,0.30103,2.260071,2.206826,2.287802,1.597695,0.778151,0.30103,0.079181,0.477121,1.904174,2.361728,1.482874,1.20412,1.863323,1.39794,0.30103,1.255273,0.477121,1.041393,1.462398,no
1.342423,0.30103,1.70757,1.447158,1.770852,0.968016,0.90309,0.477121,0.11059,0.60206,2.646404,2.951823,1.953566,2.677607,2.123852,0.477121,0.30103,0.477121,0,0,0.69897,no
2.103804,0.90309,2.298853,2.217484,2.334454,1.396025,1,0.477121,0.08636,0.60206,2.571837,2.951823,1.890868,2.278754,1.982271,1.230449,0.30103,1.255273,0.477121,0.69897,1.556303,no
2.167317,0.477121,2.264818,2.264818,2.264818,2.264818,0.30103,0,0,0.30103,0.845098,0.845098,0.845098,1.20412,2.681241,0.954243,0.30103,1.079181,0.477121,0.90309,1.880814,no
1.672098,0.30103,1.959041,1.799341,2.004321,1.130334,0.954243,0.30103,0.053078,0.60206,2.619093,2.951823,1.930694,2.4133,1.982271,1,0.30103,0.778151,0.477121,0.477121,1.079181,no
2.658011,1.755875,2.996074,2.488551,3.125806,1.242541,1.913814,1.477121,0.133539,1.041393,1.786538,2.951823,1.300813,1.113943,0.30103,1.643453,0.477121,1.70757,1.462398,0.954243,1.755875,yes
1.995635,0.30103,2.184691,2.130334,2.230449,1.400365,0.90309,0.30103,0.056905,0.477121,2.130784,2.786751,1.499275,2.240549,1.982271,1.230449,0.477121,0.778151,0.60206,1,1.414973,no
2.09691,0,2.276462,2.214844,2.324282,1.435367,0.954243,0.477121,0.09691,0.477121,2.070038,2.786751,1.453012,2.240549,1.982271,1.230449,0.477121,1.30103,0.845098,0.954243,1.39794,no
2.113943,0,2.472756,2.240549,2.614897,1.624282,1.041393,0.30103,0.041393,0.477121,2.021189,2.786751,1.444045,2.240549,1.982271,1.342423,0.477121,0.845098,1.50515,0.954243,1.612784,no
2.053078,0,2.41162,2.10721,2.549003,1.291813,1.30103,0.778151,0.100371,0.69897,2.32611,2.951823,1.670617,1.770852,1.863323,1.30103,0.477121,1.255273,0.778151,0.954243,1.491362,no
2.348305,0.778151,2.611723,2.184691,2.730782,1.660391,1.113943,0.778151,0.152288,0.69897,1.432649,1.799341,1.048053,2.071882,0.30103,1.447158,0.477121,1.491362,1.146128,1.322219,1.812913,yes
2.320146,0.30103,3.004751,2.662758,3.241297,1.75732,1.50515,0.845098,0.075547,0.69897,2.169028,2.951823,1.531862,1.770852,1.982271,1.643453,0.30103,1.146128,2.045323,1.20412,1.94939,yes
2.559907,0.69897,2.850033,1.838849,2.991669,1.339451,1.681241,1.146128,0.10721,0.778151,2.016239,2.951823,1.425534,1.770852,1.863323,1.69897,0.30103,1.897627,1.886491,1.477121,2.139879,yes
2.498311,0,2.659916,2.447158,2.742725,1.550228,1.230449,0.778151,0.117271,0.60206,1.862966,2.786751,1.291369,1.908485,1.863323,1.39794,0.60206,1.491362,1.079181,1.30103,2,no
2.4843,0.30103,2.645422,2.434569,2.727541,1.485863,1.278754,0.778151,0.10721,0.60206,1.897957,2.786751,1.31639,1.908485,1.863323,1.361728,0.60206,1.447158,1.20412,1.278754,1.982271,no
2.017033,0,2.313867,2.143015,2.434569,1.448706,1.041393,0.60206,0.113943,0.477121,2.088845,2.786751,1.4843,1.770852,1.982271,1.176091,0.477121,1,0.778151,1,1.342423,no
2.487138,0,2.638489,2.431364,2.71433,1.522575,1.230449,0.778151,0.117271,0.60206,1.862966,2.786751,1.291369,1.908485,1.863323,1.361728,0.60206,1.531479,0.90309,1.342423,1.982271,no
2.491362,0.30103,2.639486,2.439333,2.71265,1.521007,1.230449,0.778151,0.117271,0.60206,1.862966,2.786751,1.291369,1.908485,1.863323,1.380211,0.60206,1.518514,1.176091,1.30103,1.986772,no
2.501059,0,2.64836,2.448706,2.720159,1.5027,1.255273,0.778151,0.11059,0.60206,1.867173,2.786751,1.30103,1.908485,1.863323,1.39794,0.60206,1.50515,1.230449,1.30103,2,no
2.579784,1.230449,2.676694,2.638489,2.705008,1.931102,0.845098,0.477121,0.123852,0.477121,1.462398,1.799341,1.048053,1.908485,1.863323,1.342423,0.477121,1.672098,1.113943,1.20412,2.113943,yes
2.127105,0.30103,2.439333,1.924279,2.558709,1.172603,1.431364,0.90309,0.103804,0.69897,2.214234,2.951823,1.586812,1.770852,1.041393,1.518514,0.477121,0.778151,1.531479,0.778151,1.544068,no
1.113943,0,1.819544,1.30103,1.963788,0.96708,1.079181,0.60206,0.103804,0.60206,2.499934,2.951823,1.822495,2.426511,1.982271,0.845098,0.477121,0,0.90309,0.60206,0.845098,no
1.591065,0,1.908485,1.908485,1.908485,1.908485,0.30103,0,0,0.30103,1.929419,1.929419,1.431364,2.582063,2.681241,0.90309,0.477121,0.778151,0.477121,0.954243,0.90309,no
1.869232,0.60206,2.227887,2.227887,2.227887,2.227887,0.30103,0,0,0.30103,1.929419,1.929419,1.431364,2.582063,2.681241,1.146128,0.69897,0.90309,0.69897,0.845098,1.255273,no
3.015779,1.255273,3.165541,3.165541,3.165541,3.165541,0.30103,0,0,0.30103,1.929419,1.929419,1.431364,2.582063,2.681241,1.431364,1,2.053078,0.69897,1.322219,2.369216,no
2.469822,1.113943,2.662758,2.662758,2.662758,2.662758,0.30103,0,0,0.30103,1.929419,1.929419,1.431364,2.582063,2.681241,1.342423,0.30103,1.60206,0.69897,0.60206,2.041393,yes
1.672098,0,1.919078,1.913814,1.963788,1.667453,0.477121,0,0,0.477121,1.832509,1.929419,1.322219,2.426511,1.982271,0.954243,0.477121,0.90309,0.778151,0.69897,1.079181,no
1.799341,0.778151,1.963788,1.963788,1.963788,1.963788,0.30103,0,0,0.30103,1.929419,1.929419,1.431364,2.582063,2.681241,0.90309,0.30103,1.255273,0.69897,0.954243,1.113943,no
2.068186,0.30103,2.334454,2.167317,2.429752,1.224274,1.255273,0.845098,0.130334,0.60206,1.896636,2.786751,1.31618,1.78533,1.322219,1.30103,0.477121,1.20412,1.176091,1.113943,1.518514,no
2.184691,0.845098,2.434569,2.133539,2.535294,1.546543,1.041393,0.69897,0.146128,0.60206,1.478566,1.799341,1.079181,2.071882,1.863323,1.361728,0.477121,1.322219,0.954243,1.255273,1.633468,yes
2.267172,0.60206,2.645422,2.173186,2.798651,1.604766,1.230449,0.90309,0.158362,0.69897,1.402261,1.799341,1.056142,2.071882,0.30103,1.50515,0.477121,1.380211,1,1.146128,1.716003,no
1.778151,0.30103,2.004321,1.991226,2.049218,1.579784,0.60206,0,0,0.477121,2.0029,2.143015,1.500648,2.158362,1.982271,1.041393,0.30103,1.146128,0.954243,0.60206,1.176091,no
1.342423,0,1.819544,1.447158,1.924279,1.056142,0.954243,0,0,0.60206,2.60206,2.951823,1.926857,0.778151,2.123852,0.477121,0.30103,0.69897,0.477121,0.845098,0.60206,no
1.623249,0.60206,1.892095,1.851258,1.929419,1.25042,0.778151,0,0,0.30103,1.597695,2.10721,1.158362,2.480007,2.681241,0.845098,0.30103,1.079181,0.90309,1.041393,0.954243,yes
1.568202,0,1.851258,1.812913,1.892095,1.306425,0.69897,0,0,0.30103,2.332943,2.786751,1.696793,2.631444,2.681241,0.477121,0.30103,1.230449,0.477121,0.90309,0.845098,yes
1.716003,0.30103,2.117271,1.716003,2.267172,1.150449,1.176091,0.60206,0.082785,0.69897,2.399795,2.951823,1.738067,2.181844,1.863323,0.477121,0.30103,1.322219,0.60206,1.146128,1.041393,yes
1.414973,0,1.69897,1.69897,1.69897,1.69897,0.30103,0,0,0.30103,2.10721,2.10721,1.544068,2.642465,2.681241,0.60206,0.30103,0.954243,0.69897,0.69897,0.778151,no
1.20412,0,1.80618,1.447158,1.934498,1.06558,0.954243,0,0,0.60206,2.598659,2.951823,1.909823,2.480007,2.123852,0.477121,0.30103,0.60206,0.477121,0.845098,0.477121,no
2.235528,0.60206,2.414973,2.372912,2.434569,1.837273,0.69897,0,0,0.30103,1.604766,1.991226,1.306425,1.78533,2.681241,1.39794,0.477121,1.556303,0.69897,1,1.748188,yes
1.78533,0.30103,2.409933,2.269513,2.625312,1.786325,0.90309,0,0,0.60206,2.550228,2.951823,1.894482,2.158362,1.982271,1.041393,0.30103,1.079181,1.230449,0.477121,1.176091,no
1.799341,0.30103,2.44248,1.90309,2.650308,1.347135,1.342423,0.90309,0.123852,0.69897,2.227527,2.951823,1.595827,2.4133,1.982271,1,0.30103,1.079181,0.30103,0.778151,1.146128,no
1.799341,0.30103,2.396199,2.167317,2.605305,1.537819,1.113943,0.30103,0.033424,0.69897,2.449355,2.951823,1.787106,2.158362,1.982271,1.079181,0.30103,1.146128,0.69897,0.60206,1.20412,no
1.778151,0.30103,2.389166,2.252853,2.600973,1.762378,0.90309,0,0,0.60206,2.555614,2.951823,1.886491,2.158362,1.982271,1.041393,0.30103,1.146128,0.69897,0.60206,1.176091,no
1.255273,0.30103,1.763428,1.278754,1.857332,0.810233,1.146128,0.778151,0.139879,0.69897,2.165719,2.850646,1.60206,1.672098,1.342423,0.30103,0.30103,0,0,0,0.30103,yes
1,0,1.556303,1.278754,1.623249,0.78746,0.954243,0.477121,0.09691,0.477121,2.617525,2.951823,1.926857,1.832509,2.518514,0,0.30103,0,0,0,0,yes
0.954243,0.30103,1.544068,1.278754,1.60206,0.817565,0.90309,0.30103,0.056905,0.477121,2.675127,2.951823,1.982904,2.677607,2.518514,0,0.30103,0,0,0,0,no
1.838849,0.845098,2.064458,1.982271,2.100371,1.275542,0.90309,0.30103,0.056905,0.60206,2.300726,2.850646,1.661434,1.78533,1.982271,1.041393,0.30103,0.90309,0.477121,0.477121,1.342423,no
3.042969,1.799341,3.446382,3.211654,3.547652,2.294466,1.278754,0.778151,0.10721,0.69897,2.279005,2.951823,1.636287,1.959041,1.845098,2.025306,0.477121,1.991226,1.146128,1.079181,2.423246,yes
2.149219,0.778151,2.340444,2.262451,2.342423,1.869232,0.60206,0.30103,0.123852,0.477121,1.0141,1.30103,0.845098,1.50515,1.322219,1.041393,0.30103,1.113943,0.30103,0.778151,1.591065,no
2.209515,1.556303,2.549003,2.549003,2.549003,2.549003,0.30103,0,0,0.30103,1.556303,1.556303,1.176091,2.4133,2.681241,0.845098,0.30103,1.361728,0.30103,0.60206,1.518514,no
2.212188,1.230449,2.332438,2.193125,2.357935,1.761552,0.69897,0,0,0.30103,2.561698,3.088136,1.736397,0.778151,2.681241,1,0.30103,1.623249,0.69897,0.69897,1.681241,no
1.724276,0.60206,2.017033,1.544068,2.075547,1.069298,1.079181,0.69897,0.133539,0.477121,2.446879,2.951823,1.809896,1.770852,2.518514,0.69897,0.30103,1.146128,0.90309,0.90309,0.845098,no
2.740363,1.146128,2.800717,2.800717,2.800717,2.800717,0.30103,0,0,0.30103,1.672098,1.672098,1.278754,2.181844,1.863323,0.477121,0.30103,0.778151,0.30103,0.69897,0.477121,yes
3.209515,2.004321,3.354301,3.331225,3.367915,2.766413,0.69897,0.30103,0.09691,0.477121,1.146128,1.672098,0.845098,1.113943,1.863323,1.556303,0.30103,1.886491,0.69897,1.146128,2.658011,yes
3.10721,1.579784,3.330819,3.322839,3.330819,2.854106,0.60206,0,0,0.477121,2.012837,2.40824,1.452247,1.770852,1.863323,1.812913,0.30103,1.982271,1.146128,1.079181,2.652246,yes
2.037426,0.30103,2.190332,2.190332,2.190332,2.190332,0.30103,0,0,0.30103,1.672098,1.672098,1.278754,2.181844,1.863323,1.113943,0.30103,1.079181,1.176091,0.477121,1.322219,no
2.0086,0.954243,2.326336,1.80618,2.462398,1.231979,1.278754,0.69897,0.08636,0.69897,2.436163,3.088136,1.728841,2.269513,1.176091,1.113943,0.30103,1.431364,0.954243,0.845098,1.278754,no
2.340444,0.60206,2.468347,2.468347,2.468347,2.468347,0.30103,0,0,0.30103,1.579784,1.579784,1.30103,1.799341,1.342423,1.255273,0.30103,1.556303,0.845098,0.90309,1.681241,no
1.477121,0.60206,1.819544,1.672098,1.826075,1.361728,0.60206,0,0,0.477121,2.86845,2.951823,2.170262,2.677607,2.518514,0.30103,0.30103,1.146128,0,0,0.845098,no
2.274158,0.778151,2.670246,2.09691,2.838219,1.407731,1.462398,0.845098,0.082785,0.778151,2.167435,2.951823,1.564429,1.740363,1.845098,1.50515,0.30103,1.623249,1.176091,1,1.792392,no
2.158362,1.113943,2.330414,2.330414,2.330414,2.330414,0.30103,0,0,0.30103,1.322219,1.322219,0.954243,1.924279,2.681241,0.954243,0.30103,1.079181,0.90309,0.477121,1.50515,no
1.732394,0.69897,1.982271,1.60206,2.089905,1.210853,0.954243,0,0,0.60206,2.489958,2.951823,1.838093,2.359835,1.982271,0.90309,0.30103,1.176091,0.90309,0.30103,1.176091,no
2.4133,0.954243,2.633468,2.531479,2.651278,1.659916,1.041393,0.477121,0.079181,0.60206,2.529045,2.951823,1.846337,1.959041,1.982271,1.20412,0.30103,1.20412,1,0.778151,1.954243,no
1.60206,0.477121,1.90309,1.431364,1.963788,1.375664,0.69897,0,0,0.477121,2.127105,2.40824,1.588272,1.770852,0.30103,0.954243,0.30103,0.477121,0.60206,0.60206,1,no
1.255273,0.30103,1.30103,1.30103,1.361728,1.361728,0.30103,0,0,0.30103,2.361728,2.361728,1.857332,2.332438,2.681241,0.60206,0.30103,0.778151,1,0.69897,0.60206,no
1.146128,0.60206,1.662758,1.278754,1.716003,0.824126,1,0.477121,0.08636,0.477121,2.575834,2.951823,1.894538,2.677607,2.518514,0.30103,0.30103,0.30103,0,0.30103,0.30103,no
2.342423,1.041393,2.49693,1.986772,2.49693,1.603469,0.954243,0.778151,0.212188,0.477121,1.622007,2.361728,1.258398,1.78533,1.982271,1.322219,0.30103,1.623249,0.778151,0.69897,1.633468,no
1.380211,0.30103,2.193125,1.908485,2.418301,1.526727,0.954243,0,0,0.60206,2.491894,2.951823,1.84042,2.4133,1.982271,0.60206,0.30103,0.477121,0.30103,0.69897,0.60206,no
2.217484,1.322219,2.503791,1.672098,2.575188,1.158061,1.462398,0.845098,0.082785,0.69897,2.207877,2.951823,1.624695,0.778151,1.982271,1.431364,0.30103,1.531479,1.80618,0.954243,1.653213,yes
1.991226,1.113943,2.25042,2.25042,2.25042,2.25042,0.30103,0,0,0.30103,1.146128,1.146128,1.041393,2.262451,2.681241,1.322219,0.30103,1.477121,0.69897,0.69897,1.380211,no
1.924279,0.69897,2.155336,1.968483,2.217484,1.240549,1.041393,0.477121,0.079181,0.477121,2.577262,3.088136,1.881955,2.269513,2.518514,1.113943,0.30103,1.322219,0.69897,0.845098,1.30103,no
1.361728,0.30103,1.690196,1.462398,1.70757,1.041393,0.778151,0.30103,0.079181,0.477121,2.840232,3.088136,2.079904,2.269513,2.518514,0.477121,0.30103,1.041393,0.30103,0.60206,0.60206,no
0.954243,0,1.50515,1.278754,1.531479,0.812913,0.845098,0.30103,0.068186,0.60206,2.769134,3.088136,2.014226,2.269513,1.982271,0.30103,0.60206,0.30103,0.30103,0.60206,0.30103,no
2.264818,0.69897,2.536558,2.184691,2.661813,1.399847,1.30103,0.69897,0.082785,0.845098,2.363706,3.088136,1.698014,1.462398,0.845098,0.778151,0.477121,1.146128,0.477121,1.041393,0.954243,no
2.11059,0.778151,2.346353,2.324282,2.376577,2.077368,0.477121,0,0,0.30103,2.210853,2.40824,1.690196,0.778151,2.681241,0.69897,0.30103,1.591065,0.30103,1.113943,1.278754,no
1.792392,0.477121,1.968483,1.968483,1.968483,1.968483,0.30103,0,0,0.30103,2.40824,2.40824,1.778151,1.770852,2.681241,0.954243,0.30103,1.176091,0.30103,1,1.079181,no
1.255273,0.30103,1.623249,1.623249,1.623249,1.623249,0.30103,0,0,0.30103,2.40824,2.40824,1.778151,1.770852,2.681241,0.30103,0.30103,0.477121,0,0.69897,0.30103,no
2.217484,0.845098,2.350248,2.350248,2.350248,2.350248,0.30103,0,0,0.30103,2.40824,2.40824,1.778151,1.770852,2.681241,1,0.477121,1.770852,0.69897,1.361728,1.255273,no
2.795185,1.612784,2.931458,2.924796,2.94939,2.648848,0.477121,0,0,0.30103,2.210853,2.40824,1.690196,0.778151,2.681241,1.477121,0.477121,2.012837,0.778151,1.612784,2.079181,no
2.176091,0.69897,2.330414,2.330414,2.330414,2.330414,0.30103,0,0,0.30103,2.40824,2.40824,1.778151,1.770852,2.681241,1.20412,0.477121,1.544068,0.30103,1.414973,1.380211,no
1.633468,0.69897,1.880814,1.880814,1.880814,1.880814,0.30103,0,0,0.30103,1.838849,1.838849,1.579784,0.778151,2.681241,0.30103,0.30103,1.380211,0.30103,1.041393,0.477121,no
2.029384,0.477121,2.217484,2.217484,2.217484,2.217484,0.30103,0,0,0.30103,1.838849,1.838849,1.579784,0.778151,2.681241,0.69897,0.30103,1.556303,0.477121,1.041393,1.146128,no
1,0,1.591065,1.50515,1.672098,1.09691,0.69897,0,0,0.30103,2.617,3.088136,1.816241,1.770852,2.681241,0.477121,0.477121,0.477121,0.60206,0.30103,0.477121,no
2.941511,1.146128,3.006038,2.979548,3.006038,2.705436,0.477121,0,0,0.30103,2.210853,2.40824,1.690196,0.778151,2.681241,1.799341,0.30103,1.819544,0.90309,1.477121,2.472756,no
1.716003,0.477121,1.929419,1.924279,1.934498,1.638489,0.477121,0,0,0.30103,2.210853,2.40824,1.690196,0.778151,2.681241,0.60206,0.477121,1.255273,0.30103,1.079181,1.041393,no
1.929419,0.477121,2.404834,1.556303,2.584331,1.246745,1.380211,0.60206,0.053078,0.69897,2.378943,3.088136,1.678882,1.113943,1.342423,1.146128,0.60206,1.079181,1,1.414973,1.342423,no
2.419956,1.041393,2.813581,2.437751,2.946452,1.654658,1.322219,0.778151,0.09691,0.477121,2.411788,3.088136,1.707144,0.778151,2.518514,1.278754,0.477121,1.462398,0.30103,1.20412,1.778151,no
2.437751,0.778151,2.670246,2.448706,2.770852,1.699664,1.113943,0.778151,0.152288,0.30103,2.143015,3.088136,1.366423,2.017033,2.681241,1.556303,0.30103,1.70757,0.778151,1.462398,1.857332,no
2.330414,0.778151,2.513218,2.378398,2.583199,1.74484,0.90309,0.477121,0.11059,0.30103,2.306575,3.088136,1.477121,1.792392,2.681241,1.30103,0.477121,1.041393,0.90309,1.30103,1.50515,no
2.230449,0.60206,2.876218,2.167317,3.109241,1.461348,1.672098,0.954243,0.068186,0.60206,2.164947,3.088136,1.506911,0.778151,2.123852,1.30103,0.477121,1.477121,1.342423,1.39794,1.778151,no
2.344392,0.954243,2.645422,2.264818,2.777427,1.431364,1.380211,0.845098,0.100371,0.477121,2.372028,3.088136,1.678518,1.792392,2.518514,1.255273,0.60206,1.39794,0.954243,1.30103,1.568202,no
1.662758,0.69897,2.214844,2.079181,2.403121,1.37858,1.079181,0.845098,0.190332,0.30103,2.15005,3.088136,1.388279,2.240549,2.681241,0.90309,0.60206,0.90309,0.778151,1.414973,1,yes
1.869232,0.477121,2.390935,1.832509,2.582063,1.136721,1.491362,0.845098,0.079181,0.60206,2.281874,3.088136,1.601734,1.792392,2.123852,1.176091,0.477121,0.954243,1.278754,1.113943,1.255273,no
1.591065,0.477121,2.419956,1.880814,2.654177,1.130334,1.568202,0.954243,0.08636,0.60206,2.219663,3.088136,1.550228,1.770852,2.123852,1.113943,0.30103,0.477121,1.857332,1.20412,1.113943,no
1.079181,0.30103,1.662758,1.623249,1.770852,1.028164,0.845098,0.30103,0.068186,0.477121,2.791571,3.088136,2.047275,2.269513,2.518514,0.477121,0.30103,0,0.30103,0.845098,0.477121,no
2.556303,1.176091,2.945961,2.416641,3.095169,1.496099,1.623249,1.176091,0.127105,0.69897,2.199783,3.088136,1.55364,1.770852,1.342423,1.30103,0.69897,1.69897,0.60206,1.568202,1.740363,yes
1.954243,0.60206,2.50515,1.778151,2.708421,1.138303,1.612784,1.146128,0.123852,0.778151,2.190976,3.088136,1.537567,1.792392,0.845098,1.255273,0.477121,1.146128,1.113943,1.230449,1.361728,no
2.123852,0.60206,2.471292,2.068186,2.619093,1.229426,1.431364,0.778151,0.075547,0.60206,2.35382,3.088136,1.671728,0.778151,1.982271,1.278754,0.477121,1.230449,1.176091,1.30103,1.518514,no
1.716003,0.477121,2.494155,1.845098,2.733999,1.338656,1.431364,0.69897,0.060698,0.60206,2.313551,3.088136,1.620864,2.269513,2.123852,0.778151,0.60206,1.079181,0.90309,1.30103,1,yes
1.732394,0.477121,2.178977,2.056905,2.332438,1.394101,1,0.60206,0.123852,0.30103,2.28979,3.088136,1.535674,2.269513,2.681241,0.90309,0.60206,1,0.954243,1.322219,1.041393,no
1.724276,0.778151,2.267172,1.908485,2.454845,1.273001,1.230449,0.60206,0.075547,0.60206,2.499948,3.088136,1.780893,2.240549,1.982271,0.954243,0.60206,0.90309,0.778151,1.278754,1.041393,no
1.462398,0,1.78533,1.69897,1.826075,1.152288,0.778151,0,0,0.30103,2.507586,3.088136,1.730782,1.770852,2.681241,0.778151,0.69897,0.778151,0.845098,0.778151,0.90309,no
1.50515,0,2.292256,1.90309,2.525045,1.227887,1.342423,0.90309,0.123852,0.477121,2.404423,3.088136,1.69897,2.240549,2.518514,0.778151,0.60206,0.845098,0.69897,1.255273,0.845098,no
1.662758,0.477121,2.117271,1.681241,2.274158,1.079181,1.255273,0.69897,0.093422,0.477121,2.472244,3.088136,1.757244,2.240549,2.518514,0.90309,0.60206,0.69897,0.60206,1.20412,1.079181,no
1.755875,0,2.079181,1.959041,2.173186,1.409426,0.845098,0.30103,0.068186,0.30103,2.449478,3.088136,1.65485,1.770852,2.681241,0.954243,0.60206,1.041393,0.778151,1.278754,1.041393,no
1.491362,0,1.740363,1.732394,1.748188,1.286232,0.60206,0,0,0.30103,2.625312,3.088136,1.745621,2.269513,2.681241,0.60206,0.69897,0.69897,0.69897,0.69897,0.845098,no
1.819544,0.778151,2.127105,1.954243,2.225309,1.395501,0.90309,0.30103,0.056905,0.30103,2.332156,3.088136,1.525951,1.792392,2.681241,1.113943,0.477121,0.954243,0.954243,1.176091,1.176091,no
1.763428,0.30103,2.139879,2.060698,2.276462,1.509606,0.845098,0.477121,0.123852,0.477121,2.381422,3.088136,1.548144,2.240549,1.982271,1,0.60206,0.90309,0.778151,1.113943,1.113943,no
1.380211,0,1.690196,1.643453,1.690196,1.230449,0.60206,0,0,0.30103,2.701568,3.088136,1.861355,1.770852,2.681241,0.69897,0.69897,0.69897,0.69897,0.60206,0.69897,no
2.049218,1.146128,2.290035,2.240549,2.33646,1.645422,0.778151,0.30103,0.079181,0.30103,2.023664,2.40824,1.372912,1.113943,2.681241,1.113943,0.30103,1.447158,1.041393,1.255273,1.462398,no
1.869232,0.30103,2.033424,1.986772,2.033424,1.736397,0.477121,0,0,0.30103,1.633468,1.799341,1.113943,1.792392,2.681241,1.176091,0.477121,0.90309,1.041393,1.041393,1.20412,no
1.929419,0.60206,2.075547,2.071882,2.079181,1.781755,0.477121,0,0,0.30103,2.093422,2.252853,1.50515,0.778151,2.681241,1.079181,0.69897,1.20412,0.69897,1.230449,1.361728,no
1.491362,0,2.045323,1.556303,2.209515,1.069298,1.20412,0.477121,0.053078,0.477121,2.532665,3.088136,1.821317,0.778151,2.518514,1,0.477121,0.477121,1.447158,1.176091,1,no
1.869232,0.30103,2.227887,1.80618,2.371068,1.278754,1.146128,0.477121,0.060698,0.477121,2.558156,3.088136,1.824581,2.071882,2.518514,0.954243,0.60206,1.079181,0.30103,1.30103,1,yes
1.380211,0.477121,2.133539,1.819544,2.352183,1.369216,1.041393,0,0,0.477121,2.662286,3.088136,1.925828,2.269513,2.518514,0.477121,0.69897,0.477121,0,0.954243,0.477121,yes
1.39794,0.30103,2.167317,1.812913,2.392697,1.332438,1.113943,0,0,0.477121,2.590229,3.088136,1.868233,0.778151,2.518514,0.477121,0.69897,0.477121,0,0.954243,0.477121,yes
1.838849,0.30103,2.238046,1.792392,2.394452,1.30103,1.146128,0.477121,0.060698,0.477121,2.558156,3.088136,1.824581,2.071882,2.518514,0.90309,0.60206,1.079181,0.30103,1.322219,0.954243,yes
1.380211,0.30103,1.653213,1.653213,1.653213,1.361728,0.477121,0,0,0.30103,2.793092,3.088136,1.897627,2.269513,2.681241,0.477121,0.60206,0.477121,0.60206,0.778151,0.69897,no
1.39794,0,1.672098,1.653213,1.690196,1.39794,0.477121,0,0,0.30103,2.120574,2.40824,1.511883,1.770852,2.681241,0.30103,0.69897,0,0,0.69897,0.30103,no
1.380211,0,1.662758,1.653213,1.681241,1.389166,0.477121,0,0,0.30103,2.120574,2.40824,1.511883,1.770852,2.681241,0.30103,0.69897,0,0,0.69897,0.30103,no
1.361728,0,1.653213,1.643453,1.672098,1.212986,0.60206,0,0,0.30103,2.698388,3.088136,1.861355,1.770852,2.681241,0.30103,0.69897,0,0,0.69897,0.30103,no
1.361728,0,1.662758,1.653213,1.681241,1.221936,0.60206,0,0,0.30103,2.698388,3.088136,1.861355,1.770852,2.681241,0.30103,0.69897,0,0,0.69897,0.30103,no
1.361728,0,1.662758,1.653213,1.681241,1.221936,0.60206,0,0,0.30103,2.698388,3.088136,1.861355,1.770852,2.681241,0.30103,0.69897,0,0,0.69897,0.30103,no
1.380211,0,1.662758,1.653213,1.681241,1.389166,0.477121,0,0,0.30103,2.120574,2.40824,1.511883,1.770852,2.681241,0.30103,0.69897,0,0,0.69897,0.30103,no
1.380211,0,1.662758,1.653213,1.681241,1.389166,0.477121,0,0,0.30103,2.120574,2.40824,1.511883,1.770852,2.681241,0.30103,0.69897,0,0,0.69897,0.30103,no
1.748188,0,2.120574,1.748188,2.252853,1.199481,1.113943,0.477121,0.068186,0.477121,2.604766,3.088136,1.865814,2.269513,2.518514,0.954243,0.60206,0.69897,0.477121,1.230449,0.954243,no
1.477121,0,1.913814,1.414973,2.033424,0.996512,1.113943,0.30103,0.033424,0.477121,2.611011,3.088136,1.874598,2.269513,2.518514,0.477121,0.69897,0.30103,0,1.079181,0.60206,no
1.770852,0.477121,1.982271,1.875061,2.004321,1.322219,0.778151,0.30103,0.079181,0.30103,2.455454,3.088136,1.623249,1.851258,2.681241,0.90309,0.69897,0.69897,0,1.230449,1.041393,no
1.591065,0.30103,1.934498,1.579784,2.037426,1.161368,0.954243,0,0,0.60206,2.683047,3.088136,1.933892,2.269513,2.123852,0.477121,0.60206,0.90309,0.30103,1.146128,0.60206,no
1.716003,0.30103,2.113943,1.70757,2.257679,1.171726,1.146128,0.477121,0.060698,0.477121,2.573231,3.088136,1.842235,2.269513,2.518514,0.845098,0.60206,0.778151,0,1.230449,0.845098,yes
1.70757,0.30103,2.089905,1.69897,2.227887,1.176091,1.113943,0.477121,0.068186,0.477121,2.601245,3.088136,1.865282,2.269513,2.518514,0.845098,0.60206,0.778151,0,1.20412,0.845098,yes
1.70757,0.30103,2.093422,1.69897,2.230449,1.178401,1.113943,0.477121,0.068186,0.477121,2.604766,3.088136,1.865814,2.269513,2.518514,0.845098,0.60206,0.778151,0,1.20412,0.845098,yes
1.716003,0.30103,2.117271,1.690196,2.264818,1.178401,1.146128,0.477121,0.060698,0.477121,2.573231,3.088136,1.842235,2.269513,2.518514,0.845098,0.60206,0.778151,0,1.230449,0.845098,yes
1.740363,0.30103,1.913814,1.913814,1.913814,1.618048,0.477121,0.30103,0.176091,0.30103,2.789933,3.088136,1.877947,2.269513,2.681241,0.845098,0.60206,0.778151,0,1.041393,0.954243,yes
1.70757,0.30103,2.093422,1.69897,2.230449,1.178401,1.113943,0.477121,0.068186,0.477121,2.604766,3.088136,1.865814,2.269513,2.518514,0.845098,0.60206,0.778151,0,1.20412,0.845098,yes
1.716003,0.30103,2.089905,1.724276,2.222716,1.206556,1.079181,0.30103,0.037426,0.477121,2.634387,3.088136,1.896636,2.269513,2.518514,0.845098,0.60206,0.778151,0,1.230449,0.845098,yes
1.70757,0.30103,2.089905,1.69897,2.225309,1.173769,1.113943,0.477121,0.068186,0.477121,2.604766,3.088136,1.865814,2.269513,2.518514,0.845098,0.60206,0.778151,0,1.20412,0.845098,yes
1.716003,0.30103,2.10721,1.70757,2.247973,1.195069,1.113943,0.477121,0.068186,0.477121,2.604766,3.088136,1.865814,2.269513,2.518514,0.845098,0.60206,0.778151,0,1.230449,0.845098,yes
1.748188,0.30103,2.120574,1.740363,2.257679,1.20412,1.113943,0.477121,0.068186,0.477121,2.604766,3.088136,1.865814,2.269513,2.518514,0.845098,0.60206,0.778151,0,1.230449,0.954243,yes
1.518514,0,1.880814,1.477121,1.973128,1.101403,0.954243,0,0,0.477121,2.747606,3.088136,1.996205,2.269513,2.518514,0.477121,0.60206,0.778151,0,1.079181,0.477121,no
1.477121,0,1.724276,1.724276,1.724276,1.431364,0.477121,0,0,0.30103,2.801404,3.088136,1.90309,2.269513,2.681241,0.477121,0.60206,0.69897,0,0.778151,0.60206,no
1.70757,0.30103,2.123852,1.69897,2.262451,1.20871,1.113943,0.477121,0.068186,0.477121,2.604766,3.088136,1.865814,2.269513,2.518514,0.845098,0.60206,0.69897,0,1.230449,0.845098,yes
1.812913,0.60206,1.995635,1.995635,1.995635,1.69897,0.477121,0,0,0.30103,2.803457,3.088136,1.911158,2.269513,2.681241,0.954243,0.60206,0.778151,0,1.113943,1.079181,no
1.69897,0.30103,2.130334,1.681241,2.276462,1.159266,1.176091,0.477121,0.056905,0.477121,2.544329,3.088136,1.814314,2.269513,2.518514,0.845098,0.60206,0.69897,0,1.20412,0.845098,yes
1.812913,0.60206,1.995635,1.995635,1.995635,1.69897,0.477121,0,0,0.30103,2.803457,3.088136,1.911158,2.269513,2.681241,0.954243,0.60206,0.778151,0,1.113943,1.079181,no
1.70757,0.30103,2.133539,1.70757,2.276462,1.159266,1.176091,0.477121,0.056905,0.60206,2.528364,3.088136,1.799341,2.184691,0.30103,0.845098,0.60206,0.69897,0,1.20412,0.845098,yes
1.812913,0.60206,1.995635,1.995635,1.995635,1.69897,0.477121,0,0,0.30103,2.803457,3.088136,1.911158,2.269513,2.681241,0.954243,0.60206,0.778151,0,1.113943,1.079181,no
1.70757,0.30103,2.123852,1.69897,2.262451,1.20871,1.113943,0.477121,0.068186,0.477121,2.604766,3.088136,1.865814,2.269513,2.518514,0.845098,0.60206,0.69897,0,1.230449,0.845098,yes
1.812913,0.60206,1.995635,1.995635,1.995635,1.69897,0.477121,0,0,0.30103,2.803457,3.088136,1.911158,2.269513,2.681241,0.954243,0.60206,0.778151,0,1.113943,1.079181,no
1.643453,0,1.819544,1.819544,1.819544,1.819544,0.30103,0,0,0.30103,0.69897,0.69897,0.69897,2.240549,2.681241,0.477121,0.60206,0.69897,0,0.90309,0.60206,no
1.643453,0,1.812913,1.812913,1.812913,1.812913,0.30103,0,0,0.30103,0.60206,0.60206,0.60206,2.240549,2.681241,0.477121,0.60206,0.69897,0,0.90309,0.60206,no
1.556303,0,1.763428,1.763428,1.763428,1.763428,0.30103,0,0,0.30103,1.361728,1.361728,1.146128,2.139879,2.681241,0.477121,0.60206,0.778151,0,0.90309,0.60206,yes
1.544068,0,1.30103,1.30103,1.462398,1.462398,0.30103,0,0,0.30103,1.361728,1.361728,1.146128,2.139879,2.681241,0.477121,0.60206,0.778151,0,0.90309,0.60206,no
2.181844,1.462398,2.298853,2.290035,2.30963,1.836767,0.60206,0,0,0.60206,2.631444,3.088136,1.758382,2.181844,0.30103,0.477121,0.60206,0.778151,0,1.361728,1.278754,no
2.060698,1.230449,2.222716,2.149219,2.264818,1.792392,0.60206,0,0,0.60206,2.631444,3.088136,1.758382,2.181844,0.30103,0.477121,0.60206,0.90309,0,1.230449,1.176091,yes
2.334454,1.643453,2.488551,2.414973,2.544068,2.069409,0.60206,0,0,0.60206,2.631444,3.088136,1.758382,2.181844,0.30103,0.477121,0.60206,0.90309,0,1.477121,1.447158,yes
2.004321,1.176091,2.367356,2.152288,2.510545,1.912488,0.69897,0,0,0.477121,2.504811,3.088136,1.630936,2.181844,1.863323,0.477121,0.60206,0.954243,0,1.255273,1.176091,no
1.477121,0,1.90309,1.380211,2.033424,1.110253,1,0,0,0.60206,2.634477,3.088136,1.891482,2.139879,2.123852,0.477121,0.60206,0.477121,0,0.845098,0.60206,no
1.681241,0.30103,1.977724,1.826075,2.064458,1.380211,0.778151,0.30103,0.079181,0.477121,2.448088,3.088136,1.61066,2.181844,1.863323,0.60206,0.60206,0.90309,0,1.079181,0.778151,yes
1.591065,0,1.897627,1.857332,1.977724,1.681241,0.477121,0,0,0.477121,1.596597,1.672098,1.230449,2.181844,1.863323,0.477121,0.60206,0.778151,0,1,0.69897,no
1.531479,0,1.799341,1.653213,1.845098,1.170262,0.778151,0.30103,0.079181,0.477121,2.448088,3.088136,1.61066,2.181844,1.863323,0.477121,0.60206,0.60206,0,0.90309,0.60206,no
1.579784,0.30103,1.799341,1.799341,1.799341,1.799341,0.30103,0,0,0.30103,1.672098,1.672098,1.278754,2.181844,1.863323,0.477121,0.60206,0.845098,0,1,0.69897,yes
2.247973,0.90309,2.380211,2.380211,2.380211,2.380211,0.30103,0,0,0.30103,1.838849,1.838849,1.579784,0.778151,2.681241,1.041393,0.30103,1.838849,0.30103,1.230449,1.579784,no
1.477121,0.30103,2.025306,1.579784,2.187521,1.138303,1.113943,0.30103,0.033424,0.477121,2.594116,3.088136,1.867762,0.778151,2.518514,0.778151,0.477121,0.30103,1.94939,1.20412,0.778151,yes
1.531479,0,1.748188,1.748188,1.748188,1.454845,0.477121,0.30103,0.176091,0.477121,2.797614,3.088136,1.900367,2.269513,1.863323,0.477121,0.60206,0.60206,0,0.954243,0.60206,no
1.531479,0,1.755875,1.755875,1.755875,1.462398,0.477121,0.30103,0.176091,0.477121,2.797614,3.088136,1.900367,2.269513,1.863323,0.477121,0.60206,0.60206,0,0.954243,0.60206,no
1.579784,0,1.792392,1.792392,1.792392,1.498311,0.477121,0.30103,0.176091,0.477121,2.797614,3.088136,1.900367,2.269513,1.863323,0.477121,0.60206,0.778151,0,0.90309,0.69897,no
1.568202,0,1.78533,1.78533,1.78533,1.491362,0.477121,0.30103,0.176091,0.477121,2.797614,3.088136,1.900367,2.269513,1.863323,0.477121,0.60206,0.778151,0,0.90309,0.69897,no
1.544068,0,1.799341,1.70757,1.80618,1.342423,0.60206,0,0,0.30103,2.648038,3.088136,1.748188,2.269513,2.681241,0.477121,0.60206,0.69897,0,0.90309,0.60206,no
1.544068,0,1.799341,1.70757,1.80618,1.342423,0.60206,0,0,0.30103,2.648038,3.088136,1.748188,2.269513,2.681241,0.477121,0.60206,0.69897,0,0.90309,0.60206,no
1.544068,0,1.799341,1.70757,1.80618,1.342423,0.60206,0,0,0.30103,2.648038,3.088136,1.748188,2.269513,2.681241,0.477121,0.60206,0.69897,0,0.90309,0.60206,no
1.531479,0,1.792392,1.70757,1.799341,1.335859,0.60206,0,0,0.30103,2.648038,3.088136,1.748188,2.269513,2.681241,0.477121,0.60206,0.69897,0,0.90309,0.60206,no
1.544068,0,1.799341,1.70757,1.80618,1.342423,0.60206,0,0,0.477121,2.649013,3.088136,1.748188,2.269513,1.863323,0.477121,0.60206,0.69897,0,0.90309,0.60206,no
1.531479,0,1.792392,1.70757,1.799341,1.335859,0.60206,0,0,0.477121,2.649013,3.088136,1.748188,2.269513,1.863323,0.477121,0.60206,0.69897,0,0.90309,0.60206,no
1.531479,0,1.792392,1.70757,1.799341,1.335859,0.60206,0,0,0.477121,2.649013,3.088136,1.748188,2.269513,1.863323,0.477121,0.60206,0.69897,0,0.90309,0.60206,no
1.556303,0,1.80618,1.716003,1.812913,1.348889,0.60206,0,0,0.477121,2.649013,3.088136,1.748188,2.269513,1.863323,0.477121,0.60206,0.69897,0,0.90309,0.69897,no
1.544068,0,1.799341,1.70757,1.80618,1.342423,0.60206,0,0,0.30103,2.64706,3.088136,1.748188,2.269513,2.681241,0.477121,0.60206,0.69897,0,0.90309,0.60206,no
1.556303,0,1.819544,1.70757,1.832509,1.367915,0.60206,0,0,0.30103,2.647706,3.088136,1.748188,2.269513,2.681241,0.477121,0.60206,0.69897,0,0.90309,0.60206,no
1.531479,0,1.792392,1.70757,1.799341,1.335859,0.60206,0,0,0.477121,2.649013,3.088136,1.748188,2.269513,1.863323,0.477121,0.60206,0.69897,0,0.90309,0.60206,no
1.544068,0,1.799341,1.70757,1.80618,1.342423,0.60206,0,0,0.30103,2.647383,3.088136,1.748188,2.269513,2.681241,0.477121,0.60206,0.69897,0,0.90309,0.60206,no
1.681241,0,1.90309,1.80618,1.913814,1.447158,0.60206,0,0,0.477121,2.647383,3.088136,1.748188,2.269513,1.845098,0.477121,0.60206,0.60206,0,0.90309,0.778151,no
1.544068,0,1.799341,1.70757,1.80618,1.342423,0.60206,0,0,0.30103,2.64706,3.088136,1.748188,2.269513,2.681241,0.477121,0.60206,0.69897,0,0.90309,0.60206,no
1.544068,0,1.799341,1.70757,1.80618,1.342423,0.60206,0,0,0.30103,2.647706,3.088136,1.748188,2.269513,2.681241,0.477121,0.60206,0.69897,0,0.90309,0.60206,no
1.278754,0.30103,1.672098,1.672098,1.672098,1.672098,0.30103,0,0,0.30103,1.838849,1.838849,1.579784,0.778151,2.681241,0.477121,0.30103,0.30103,0,0.477121,0.69897,no
1.681241,0,1.90309,1.80618,1.913814,1.447158,0.60206,0,0,0.477121,2.647383,3.088136,1.748188,2.269513,1.845098,0.477121,0.60206,0.60206,0,0.90309,0.778151,no
1.414973,0,1.755875,1.662758,1.792392,1.328991,0.60206,0,0,0.477121,2.647383,3.088136,1.75074,2.269513,1.863323,0.477121,0.60206,0.30103,0,0.778151,0.477121,no
1.591065,0.30103,1.944483,1.724276,2.037426,1.447158,0.69897,0,0,0.477121,2.544068,3.088136,1.711807,0.778151,1.845098,0.477121,0.60206,0.69897,0,0.90309,0.69897,no
1.556303,0,1.80618,1.70757,1.812913,1.348889,0.60206,0,0,0.30103,2.647383,3.088136,1.748188,2.269513,2.681241,0.477121,0.60206,0.69897,0,0.90309,0.60206,no
1.633468,0,1.90309,1.70757,1.929419,1.176091,0.845098,0.60206,0.176091,0.477121,2.357611,3.088136,1.502837,1.886491,1.982271,0.477121,0.60206,0.778151,0,0.90309,0.69897,no
1.732394,0.30103,2.041393,1.968483,2.127105,1.829304,0.477121,0.30103,0.176091,0.30103,0.740363,0.845098,0.740363,1.908485,2.681241,0.477121,0.60206,1.041393,0,0.954243,1.041393,no
1.579784,0,1.819544,1.70757,1.826075,1.361728,0.60206,0,0,0.30103,2.64706,3.088136,1.748188,2.269513,2.681241,0.477121,0.60206,0.69897,0,0.90309,0.60206,no
1.531479,0,1.880814,1.70757,1.959041,1.371068,0.69897,0,0,0.60206,2.525693,3.088136,1.635986,2.269513,1.845098,0.477121,0.60206,0.69897,0,0.90309,0.60206,no
1.556303,0,1.80618,1.70757,1.812913,1.348889,0.60206,0,0,0.30103,2.64706,3.088136,1.748188,2.269513,2.681241,0.477121,0.60206,0.69897,0,0.90309,0.60206,no
1.531479,0,1.799341,1.716003,1.812913,1.348889,0.60206,0,0,0.477121,2.649013,3.088136,1.748188,2.269513,1.863323,0.477121,0.60206,0.69897,0,0.90309,0.60206,no
1.591065,0.30103,1.851258,1.763428,1.869232,1.403635,0.60206,0,0,0.477121,2.64706,3.088136,1.748188,2.269513,1.845098,0.477121,0.60206,0.60206,0,0.954243,0.69897,no
1.50515,0.30103,1.778151,1.690196,1.78533,1.322219,0.60206,0,0,0.477121,2.646727,3.088136,1.745621,2.269513,1.863323,0.477121,0.60206,0.60206,0,0.90309,0.60206,no
1.690196,0.30103,1.897627,1.80618,1.90309,1.43664,0.60206,0,0,0.30103,2.649987,3.088136,1.755875,2.269513,2.681241,0.60206,0.60206,0.69897,0,1.176091,0.845098,yes
1.518514,0.30103,1.78533,1.690196,1.792392,1.328991,0.60206,0,0,0.30103,2.64706,3.088136,1.748188,2.269513,2.681241,0.477121,0.60206,0.69897,0,1.113943,0.60206,no
1.591065,0.30103,1.832509,1.740363,1.845098,1.380211,0.60206,0,0,0.30103,2.64706,3.088136,1.748188,2.269513,2.681241,0.477121,0.60206,0.69897,0,0.90309,0.778151,no
1.60206,0.30103,1.897627,1.869232,1.954243,1.486714,0.60206,0,0,0.477121,2.61419,3.088136,1.70757,1.968483,1.845098,0.477121,0.60206,0.845098,0,0.954243,0.69897,no
1.70757,0.477121,1.982271,1.913814,2.041393,1.451018,0.69897,0,0,0.477121,2.532117,3.088136,1.672098,1.968483,1.845098,0.477121,0.60206,0.90309,0,1,0.778151,no
1.778151,0.778151,1.968483,1.90309,1.973128,1.50515,0.60206,0,0,0.477121,2.647706,3.088136,1.748188,2.269513,1.863323,0.477121,0.60206,1.041393,0,0.954243,0.954243,no
1.763428,0.30103,1.944483,1.944483,1.944483,1.64836,0.477121,0,0,0.30103,2.788522,3.088136,1.872156,2.269513,2.681241,0.60206,0.60206,1.146128,0.30103,1,1.146128,no
1.778151,0.778151,1.977724,1.913814,1.982271,1.514149,0.60206,0,0,0.477121,2.647706,3.088136,1.748188,2.269513,1.863323,0.477121,0.60206,1.041393,0,0.954243,0.954243,no
1.869232,0,2.071882,2.021189,2.075547,1.605628,0.60206,0,0,0.30103,2.647383,3.088136,1.75074,2.269513,2.681241,0.477121,0.60206,0.69897,0,0.954243,1.20412,no
1.568202,0.778151,1.819544,1.819544,1.819544,1.525045,0.477121,0,0,0.477121,2.789581,3.088136,1.875061,2.269513,1.863323,0.69897,0.30103,1.146128,0.60206,0.30103,0.954243,no
1.531479,0.30103,1.792392,1.69897,1.799341,1.335859,0.60206,0,0,0.30103,2.64706,3.088136,1.748188,2.269513,2.681241,0.477121,0.60206,0.69897,0,0.90309,0.60206,no
1.724276,0.477121,1.934498,1.869232,1.939519,1.472318,0.60206,0,0,0.30103,2.64836,3.088136,1.755875,2.269513,2.681241,0.60206,0.60206,0.90309,0.30103,0.954243,1,no
1.531479,0,1.799341,1.716003,1.80618,1.342423,0.60206,0,0,0.30103,2.64706,3.088136,1.748188,2.269513,2.681241,0.477121,0.60206,0.69897,0,0.90309,0.60206,no
1.845098,0,2.029384,1.977724,2.029384,1.560265,0.60206,0,0,0.30103,2.64706,3.088136,1.748188,2.269513,2.681241,0.60206,0.60206,0.954243,0.30103,0.954243,1.079181,no
1.50515,0.30103,1.770852,1.690196,1.770852,1.308137,0.60206,0,0,0.30103,2.647383,3.088136,1.748188,2.269513,2.681241,0.477121,0.60206,0.69897,0,1.113943,0.60206,no
1.763428,0.477121,2.029384,1.897627,2.089905,1.498311,0.69897,0.30103,0.09691,0.60206,2.524721,3.088136,1.638489,2.269513,1.845098,0.60206,0.60206,0.90309,0,1.041393,0.954243,yes
1.690196,0.30103,1.892095,1.812913,1.892095,1.426023,0.60206,0,0,0.30103,2.649987,3.088136,1.755875,2.269513,2.681241,0.60206,0.60206,0.69897,0,1.176091,0.845098,yes
1.591065,0.30103,1.826075,1.748188,1.832509,1.367915,0.60206,0,0,0.30103,2.64706,3.088136,1.748188,2.269513,2.681241,0.477121,0.60206,0.845098,0,0.90309,0.69897,no
1.531479,0,1.799341,1.716003,1.80618,1.342423,0.60206,0,0,0.477121,2.64706,3.088136,1.748188,2.269513,1.845098,0.477121,0.60206,0.60206,0,0.90309,0.60206,no
1.568202,0,1.838849,1.740363,1.845098,1.380211,0.60206,0,0,0.30103,2.64706,3.088136,1.748188,2.269513,2.681241,0.477121,0.60206,0.60206,0,0.90309,0.60206,no
1.875061,0.30103,2.068186,2.021189,2.071882,1.60206,0.60206,0,0,0.30103,2.662758,3.088136,1.775756,2.269513,2.681241,0.60206,0.60206,1,0,1.278754,1.079181,yes
1.633468,0.477121,1.869232,1.792392,1.875061,1.409426,0.60206,0,0,0.477121,2.64706,3.088136,1.748188,2.269513,1.845098,0.60206,0.60206,0.90309,0.30103,0.954243,0.845098,no
1.50515,0.30103,1.778151,1.690196,1.78533,1.322219,0.60206,0,0,0.30103,2.64706,3.088136,1.748188,2.269513,2.681241,0.477121,0.60206,0.778151,0,0.90309,0.60206,no
1.732394,0.477121,1.939519,1.875061,1.944483,1.477121,0.60206,0,0,0.30103,2.64836,3.088136,1.755875,2.269513,2.681241,0.60206,0.60206,0.90309,0.30103,0.954243,1,no
1.755875,0.60206,1.973128,1.892095,1.986772,1.39794,0.69897,0.30103,0.09691,0.60206,2.524721,3.088136,1.638489,2.269513,1.845098,0.60206,0.60206,0.90309,0,1.041393,0.954243,yes
1.681241,0.30103,1.886491,1.80618,1.886491,1.420451,0.60206,0,0,0.30103,2.649987,3.088136,1.755875,2.269513,2.681241,0.60206,0.60206,0.69897,0,1.176091,0.845098,yes
1.653213,0,1.939519,1.748188,2,1.243038,0.845098,0.477121,0.123852,0.477121,2.378089,3.088136,1.539954,2.269513,1.982271,0.477121,0.60206,0.845098,0,1.113943,0.778151,no
1.653213,0,1.875061,1.799341,1.880814,1.414973,0.60206,0,0,0.30103,2.647383,3.088136,1.748188,2.269513,2.681241,0.477121,0.60206,0.778151,0,0.90309,0.778151,no
1.908485,0.30103,2.082785,2.041393,2.082785,1.612784,0.60206,0,0,0.30103,2.647383,3.088136,1.748188,2.269513,2.681241,0.60206,0.60206,1.146128,0.30103,1,1.113943,no
1.792392,0.30103,2.075547,1.880814,2.155336,1.468347,0.778151,0.477121,0.146128,0.477121,2.434569,3.088136,1.568202,2.269513,1.863323,0.477121,0.60206,0.90309,0,0.90309,1.041393,no
1.544068,0,1.826075,1.740363,1.832509,1.367915,0.60206,0,0,0.477121,2.64706,3.088136,1.748188,2.269513,1.845098,0.477121,0.60206,0.69897,0,0.90309,0.60206,no
1.662758,0,1.913814,1.838849,1.939519,1.472318,0.60206,0,0,0.30103,2.647383,3.088136,1.75074,2.269513,2.681241,0.60206,0.60206,0.954243,0.30103,0.954243,0.845098,no
1.50515,0.30103,1.778151,1.690196,1.78533,1.322219,0.60206,0,0,0.30103,2.647383,3.088136,1.748188,2.269513,2.681241,0.477121,0.60206,0.69897,0,1.113943,0.60206,no
1.792392,0.477121,1.959041,1.959041,1.959041,1.959041,0.30103,0,0,0.30103,2.252853,2.252853,1.414973,2.017033,2.681241,0.845098,0.69897,0.90309,0.30103,1.041393,1.041393,no
1.623249,0,1.832509,1.832509,1.832509,1.832509,0.30103,0,0,0.30103,2.252853,2.252853,1.414973,2.017033,2.681241,0.778151,0.69897,0.30103,0,1,0.778151,no
1.531479,0,1.799341,1.799341,1.799341,1.799341,0.30103,0,0,0.30103,2.252853,2.252853,1.414973,2.017033,2.681241,1,0.60206,0.30103,0.60206,1.041393,1.113943,no
1.792392,0.69897,2,1.977724,2.037426,1.354108,0.778151,0,0,0.30103,2.506234,3.088136,1.746634,0.778151,2.681241,0.845098,0.30103,1.079181,0.90309,1.462398,0.954243,yes
1.39794,0,1.991226,1.69897,2.161368,1.230449,1,0.30103,0.045323,0.60206,2.703481,3.088136,1.966423,2.269513,2.123852,0.477121,0.30103,1.079181,0.30103,1,0.477121,yes
1.39794,0,1.986772,1.724276,2.155336,1.273001,0.954243,0,0,0.60206,2.73759,3.088136,1.991802,2.269513,2.123852,0.477121,0.30103,1.079181,0.30103,1,0.477121,yes
1.69897,0.30103,1.897627,1.886491,1.897627,1.60206,0.477121,0.30103,0.176091,0.30103,1.39794,1.633468,1.130334,1.113943,2.681241,0.477121,0.30103,1.146128,0.30103,0.778151,0.845098,no
1.78533,0.30103,1.973128,1.968483,1.977724,1.681241,0.477121,0,0,0.30103,1.748188,1.838849,1.469822,0.778151,2.681241,0.69897,0.477121,1.255273,0,1,1.176091,no
1.851258,0.30103,2.053078,2.053078,2.053078,2.053078,0.30103,0,0,0.30103,1.633468,1.633468,1.322219,1.838849,2.681241,0.69897,0.477121,1.176091,0,1.079181,1.176091,no
3.153205,1.531479,3.346549,2.954725,3.432649,1.670988,1.778151,1.230449,0.103804,0.69897,1.765743,3.088136,1.249443,2.017033,0.30103,2.017033,0.477121,2.61066,0.60206,2.390935,2.584331,no
1.255273,0.30103,1.60206,1.60206,1.612784,1.156246,0.60206,0,0,0.477121,2.652894,3.088136,1.770852,2.269513,1.982271,0.30103,0.477121,0.69897,0.30103,0.845098,0.477121,no
1.623249,0,1.826075,1.826075,1.826075,1.531479,0.477121,0,0,0.477121,2.79134,3.088136,1.880814,2.269513,1.982271,0.60206,0.477121,1.255273,0.477121,1.041393,1.041393,no
2.212188,0.845098,2.344392,2.340444,2.348305,2.049218,0.477121,0,0,0.30103,1.662758,1.838849,1.371068,0.778151,2.681241,0.477121,0.30103,1.886491,0.30103,1.50515,1.69897,yes
2.338456,0.90309,2.489958,2.489958,2.489958,2.489958,0.30103,0,0,0.30103,1.361728,1.361728,0.954243,1.792392,2.681241,1.146128,0.477121,1.934498,0.30103,1.380211,1.633468,yes
1.832509,0.477121,2.017033,2.017033,2.017033,1.720159,0.477121,0,0,0.30103,2.797268,3.088136,1.905796,2.269513,2.681241,1.146128,0.477121,0.69897,0.845098,0.845098,1.176091,no
2.793092,1.113943,3.03862,2.685742,3.144885,1.754348,1.414973,0.778151,0.079181,0.477121,2.01368,3.088136,1.386677,2.017033,1.863323,1.845098,0.30103,2.041393,0.90309,1.869232,2.201397,no
2.465383,1,2.738781,2.303196,2.871573,1.541205,1.361728,0.60206,0.056905,0.30103,2.075547,3.088136,1.440122,2.017033,2.681241,1.477121,0.30103,1.568202,1.322219,1.732394,1.763428,no
1.612784,0.30103,1.845098,1.845098,1.845098,1.845098,0.30103,0,0,0.30103,1.414973,1.414973,1.20412,2.017033,2.681241,0.477121,0.477121,0.954243,0.30103,1,1.113943,no
1.518514,0.30103,2.004321,1.939519,2.158362,1.687261,0.60206,0,0,0.477121,2.662446,3.088136,1.815113,2.017033,1.845098,0.30103,0.477121,1.079181,0.477121,1,0.90309,no
2.445604,0.477121,2.5302,2.222716,2.536558,1.547775,1.041393,0.60206,0.113943,0.60206,2.192846,3.088136,1.494155,1.113943,1.342423,1.342423,0.30103,1.748188,0.90309,1.431364,1.770852,no
2.276462,1.041393,2.540329,2.307496,2.649335,1.658011,1.041393,0.30103,0.041393,0.30103,2.33163,3.088136,1.587711,2.017033,2.681241,1.39794,0.477121,1.462398,0.60206,1.69897,1.431364,no
2.848189,1.176091,3.056524,2.794488,3.127753,1.792041,1.361728,0.954243,0.133539,0.60206,2.043008,3.088136,1.371991,0.778151,1.863323,1.69897,0.477121,2.089905,0.60206,2.037426,2.25042,yes
1.681241,0.477121,1.892095,1.863323,1.908485,1.442009,0.60206,0.30103,0.123852,0.30103,2.686636,3.088136,1.82393,1.792392,2.681241,0.477121,0.477121,1.041393,0.60206,1,0.90309,no
2.401401,0.69897,2.636488,2.414973,2.678518,1.575419,1.146128,0.90309,0.187521,0.30103,2.205583,3.088136,1.479287,1.838849,2.681241,1.079181,0.477121,1.70757,0.477121,1.322219,1.612784,no
2.262451,0.778151,2.474216,2.217484,2.536558,1.507586,1.079181,0.60206,0.103804,0.477121,2.163817,3.088136,1.404149,2.240549,1.863323,1.361728,0.477121,1.568202,0.477121,1.342423,1.778151,yes
2.755875,1.079181,2.913814,2.678518,2.91803,2.441962,0.60206,0.30103,0.123852,0.60206,1.409426,1.612784,1.135769,1.113943,0.845098,1,0.30103,2.045323,0.30103,1.447158,1.90309,no
2.178977,0.30103,2.419956,2.298853,2.511883,1.618048,0.954243,0.30103,0.053078,0.60206,2.303736,3.088136,1.548758,2.269513,1.845098,1.39794,0.30103,1.579784,0.954243,1.20412,1.568202,no
1.986772,0.69897,2.416641,2.260071,2.578639,1.391464,1.230449,0.845098,0.139879,0.477121,2.234593,3.088136,1.566791,2.068186,1.863323,1.230449,0.30103,1.342423,1,1.20412,1.39794,no
2.170262,0.845098,2.392697,2.09691,2.451786,1.559308,0.954243,0.30103,0.053078,0.30103,2.428944,3.088136,1.662758,2.0086,2.681241,1.113943,0.30103,1.414973,0.477121,0.778151,1.477121,no
3.056905,1.322219,3.866642,2.61595,4.117934,1.976396,2.149219,1.69897,0.130334,0.954243,1.845594,3.088136,1.319522,1.113943,1.041393,1.518514,0.60206,2.20412,0.60206,1.857332,2.136721,yes
2.332438,0,2.547775,2.322219,2.624282,1.267172,1.39794,0.845098,0.09691,0.69897,2.29199,3.088136,1.601625,2.0086,1.863323,1.568202,0.30103,1.70757,0.90309,1.255273,1.716003,no
1.579784,0.30103,1.819544,1.819544,1.819544,1.525045,0.477121,0,0,0.30103,2.795532,3.088136,1.89487,2.269513,2.681241,0.954243,0.30103,0.845098,0.60206,0.69897,1.041393,no
2.322219,1.079181,2.468347,2.342423,2.501059,1.807535,0.778151,0,0,0.60206,2.4843,3.088136,1.683047,2.269513,1.845098,1.39794,0.30103,1.556303,0.90309,1,1.690196,no
1.819544,0,2.017033,1.968483,2.021189,1.552303,0.60206,0,0,0.477121,2.622556,3.088136,1.737749,2.269513,1.863323,1,0.477121,1,0.69897,0.845098,1.30103,no
1.579784,0.60206,1.880814,1.819544,1.939519,1.472318,0.60206,0,0,0.30103,2.732932,3.088136,1.888348,2.269513,2.681241,0.845098,0.30103,0.845098,0.477121,0.954243,0.90309,no
1.924279,0.30103,2.130334,2.130334,2.130334,1.832509,0.477121,0,0,0.30103,2.80448,3.088136,1.926857,2.269513,2.681241,1.278754,0.477121,0.477121,0.845098,0.954243,1.30103,no
1.681241,0.30103,2.170262,1.568202,2.338456,1.094122,1.30103,0.477121,0.045323,0.69897,2.400123,3.088136,1.68922,2.269513,1.863323,1,0.477121,0.778151,1.518514,0.90309,1.041393,no
1.755875,0.60206,1.94939,1.934498,1.954243,1.486714,0.60206,0.30103,0.123852,0.30103,2.692556,3.088136,1.890253,2.269513,2.681241,1.079181,0.477121,0.90309,0.90309,0.778151,1.176091,no
2.029384,0.60206,2.574031,1.716003,2.781037,1.284882,1.531479,0.69897,0.049218,0.778151,2.249907,3.088136,1.600101,2.222716,1.845098,1.30103,0.778151,1.20412,1.146128,1.146128,1.414973,no
2.285557,0.90309,2.40654,2.30963,2.40824,2.108903,0.477121,0,0,0.477121,1.518514,1.612784,1.217484,1.113943,1.342423,1.322219,0.60206,1.531479,0.778151,1.079181,1.690196,no
1.740363,0.60206,1.934498,1.934498,1.934498,1.638489,0.477121,0,0,0.30103,2.861833,3.088136,2.03543,2.269513,2.681241,1.079181,0.477121,0.845098,0.90309,0.845098,1.176091,no
1.80618,0.60206,2.075547,1.857332,2.152288,1.140508,1.079181,0.30103,0.037426,0.30103,2.334454,3.088136,1.624179,2.269513,2.681241,1.113943,0.477121,0.845098,0.954243,0.778151,1.255273,no
1.70757,0.477121,2.178977,1.672098,2.334454,1.090611,1.30103,0.69897,0.082785,0.477121,2.434393,3.088136,1.727297,1.113943,2.518514,1.041393,0.477121,0.69897,0.90309,1,1.079181,no
1.30103,0,1.892095,1.50515,2.041393,1.003461,1.113943,0.477121,0.068186,0.477121,2.582257,3.088136,1.852297,2.269513,2.518514,0.60206,0.60206,0.845098,1,0.778151,0.60206,no
2.274158,0.69897,2.687529,1.812913,2.856729,1.298635,1.591065,1.041393,0.100371,0.69897,2.198877,3.088136,1.538448,2.170262,1.863323,1.30103,0.60206,1.462398,1.462398,1.20412,1.681241,no
1.643453,0.60206,1.934498,1.869232,1.995635,1.313867,0.778151,0.30103,0.079181,0.30103,2.556785,3.088136,1.748188,1.770852,2.681241,0.954243,0.60206,0.845098,1.113943,0.954243,1,no
1.959041,0.69897,2.193125,2.060698,2.276462,1.159266,1.176091,0.30103,0.029384,0.60206,2.546629,3.088136,1.827951,2.269513,1.041393,1,0.69897,1.361728,0.69897,1,1.230449,no
2.133539,0.60206,2.451786,2.264818,2.583199,1.553033,1.079181,0.60206,0.103804,0.30103,2.244401,3.088136,1.530328,2.269513,2.681241,1.380211,0.778151,1.579784,1.176091,1.113943,1.518514,no
1.30103,0,1.892095,1.50515,2.045323,1.007321,1.113943,0.477121,0.068186,0.477121,2.582257,3.088136,1.852297,2.269513,2.518514,0.60206,0.60206,0.845098,0.954243,0.778151,0.60206,no
1.414973,0,1.792392,1.556303,1.863323,1.052694,0.90309,0.477121,0.11059,0.477121,2.784004,3.088136,2.03571,2.269513,2.518514,0.778151,0.30103,0,0,0.477121,0.778151,no
1.278754,0,1.792392,1.78533,1.880814,1.414973,0.60206,0,0,0.30103,2.628726,3.088136,1.753353,2.269513,2.681241,0.60206,0.30103,0,0.60206,0.60206,0.60206,no
2.298853,0.477121,2.733197,2.462398,2.892095,1.819017,1.113943,0.60206,0.09691,0.477121,2.205935,3.088136,1.509606,0.778151,1.845098,0.845098,0.30103,1.662758,0.778151,1.462398,1.662758,yes
1.662758,0.60206,1.954243,1.763428,2.017033,1.259355,0.845098,0,0,0.30103,2.369828,3.088136,1.60206,0.778151,2.681241,1,0.30103,0.845098,0.69897,0.69897,1,no
2.045323,0,2.401401,1.799341,2.542825,1.412629,1.176091,0.778151,0.133539,0.477121,2.141669,3.088136,1.472903,0.778151,1.845098,0.477121,0.60206,1.50515,0.778151,1.361728,1.322219,yes
2.071882,0.60206,2.559907,2.0086,2.749736,1.255273,1.531479,0.778151,0.060698,0.778151,2.251297,3.088136,1.578066,2.017033,1.845098,1.255273,0.60206,1.39794,1.690196,1.176091,1.431364,no
1.591065,0.60206,2.11059,1.897627,2.283301,1.111934,1.230449,0.30103,0.025306,0.60206,2.44061,3.088136,1.728841,2.269513,1.863323,0.90309,0.60206,0.60206,1.146128,0.845098,0.954243,no
1.929419,0.60206,2.298853,1.60206,2.429752,1.102091,1.380211,0.477121,0.037426,0.69897,2.349316,3.088136,1.648165,2.269513,1.863323,1.30103,0.30103,0.845098,2.11059,1.041393,1.361728,no
1.278754,0.477121,1.934498,1.30103,2.113943,0.933993,1.255273,0.60206,0.071882,0.69897,2.447793,3.088136,1.739414,2.269513,1.863323,0.69897,0.60206,0.60206,1.255273,0.69897,0.69897,no
2.060698,0.60206,2.322219,2.257679,2.414973,1.579784,0.90309,0.477121,0.11059,0.477121,2.32954,3.088136,1.568202,1.113943,0.845098,1.079181,0.69897,1.462398,1.146128,1.113943,1.414973,no
1.732394,0.477121,2.136721,2.045323,2.262451,1.375664,0.954243,0.30103,0.053078,0.477121,2.273881,3.088136,1.537819,1.78533,1.982271,1,0.60206,0.845098,1,1,1.113943,no
1.886491,0.69897,2.371068,1.653213,2.550228,1.149527,1.447158,0.69897,0.060698,0.69897,2.305996,3.088136,1.616265,2.269513,1.863323,1,0.60206,1.278754,1.278754,1.041393,1.255273,no
1.146128,0.30103,1.732394,1.556303,1.763428,0.910091,0.954243,0.477121,0.09691,0.30103,2.348071,3.088136,1.591065,2.269513,2.681241,0.845098,0.477121,0,1.255273,0.60206,0.845098,no
2.271842,0.477121,2.674861,1.69897,2.843855,1.235781,1.643453,1.146128,0.113943,0.845098,2.196618,3.088136,1.56573,1.113943,0.845098,1.447158,0.60206,1.579784,1.643453,1.278754,1.653213,no
1.662758,0.60206,2.176091,1.579784,2.352183,1.08636,1.322219,0.477121,0.041393,0.69897,2.44083,3.088136,1.733598,1.770852,1.863323,0.954243,0.60206,0.845098,1.342423,1,1,no
1.832509,0.60206,2.10721,2.060698,2.178977,1.414973,0.845098,0.30103,0.068186,0.477121,2.369531,3.088136,1.566202,2.269513,1.845098,1,0.69897,1.113943,0.60206,0.778151,1.146128,no
1.819544,0.60206,2.292256,1.690196,2.472756,1.108565,1.414973,0.60206,0.049218,0.69897,2.328624,3.088136,1.64068,2.269513,1.863323,0.90309,0.60206,1.278754,1.278754,0.954243,1.176091,no
1.832509,0.60206,2.552668,2.045323,2.78746,1.316809,1.50515,0.60206,0.041393,0.778151,2.229631,3.088136,1.581608,2.269513,1.845098,1.113943,0.69897,1.079181,1.447158,1.146128,1.20412,no
2.120574,0.60206,2.338456,2.093422,2.40654,1.179264,1.278754,0.954243,0.158362,0.477121,2.089693,3.088136,1.435844,1.959041,1.845098,1.30103,0.60206,1.322219,1.380211,1.146128,1.477121,no
1.544068,0,1.80618,1.799341,1.812913,1.518514,0.477121,0,0,0.30103,1.653213,1.838849,1.389166,0.778151,2.681241,0.90309,0.477121,0.477121,0.477121,0.69897,0.90309,no
1.579784,0.30103,2.049218,1.462398,2.187521,0.956649,1.30103,0.477121,0.045323,0.69897,2.4004,3.088136,1.69117,2.269513,1.863323,0.90309,0.477121,0.845098,1.579784,0.845098,1,no
1.113943,0.30103,1.886491,1.531479,2.064458,0.96426,1.176091,0.60206,0.082785,0.477121,2.535471,3.088136,1.806655,2.269513,2.518514,0.477121,0.60206,0,1.176091,0.778151,0.477121,no
2.247973,0.477121,2.378398,2.378398,2.378398,2.378398,0.30103,0,0,0.30103,2.252853,2.252853,1.414973,2.017033,2.681241,1.342423,0.60206,1.462398,0.845098,1.041393,1.643453,no
2.181844,0.30103,2.320146,2.320146,2.320146,2.320146,0.30103,0,0,0.30103,2.252853,2.252853,1.414973,2.017033,2.681241,0.90309,0.30103,0.477121,0.30103,0.69897,0.954243,no
2.374748,1.146128,3.335658,2.739572,3.604226,1.946305,1.672098,1.176091,0.113943,0.69897,2.109714,3.088136,1.493179,1.851258,1.041393,0.69897,0.778151,1.591065,1.146128,1.477121,1.176091,no
2.683047,0.954243,3.295347,2.752048,3.513883,1.876102,1.653213,1.255273,0.143015,0.60206,1.922414,3.088136,1.368473,1.838849,1.845098,1.518514,0.30103,1.748188,1.845098,1.50515,1.80618,no
3.157457,1.892095,3.784332,2.992554,4.007278,1.876333,2.139879,1.672098,0.127105,0.845098,1.824451,3.088136,1.301898,1.838849,1.845098,1.832509,0.477121,2.542825,1.544068,2.201397,2.459392,yes
2.564666,1.20412,2.828015,2.480007,2.926342,1.634981,1.322219,1,0.161368,0.477121,2.087781,3.088136,1.438542,1.113943,1.863323,1.431364,0.60206,1.982271,0.477121,1.838849,1.763428,yes
2.290035,0.845098,2.60206,2.354108,2.729165,1.695832,1.079181,0.60206,0.103804,0.30103,2.273117,3.088136,1.563955,1.113943,2.681241,1.30103,0.477121,1.69897,0.477121,1.568202,1.579784,no
2.324282,0.954243,2.708421,2.434569,2.806858,1.857995,1,0.778151,0.193125,0.30103,2.268999,3.088136,1.509606,1.838849,2.681241,1.39794,0.30103,1.662758,1.041393,1.146128,1.681241,no
2.235528,0.69897,2.465383,2.465383,2.465383,2.465383,0.30103,0.30103,0.30103,0.30103,1.414973,1.414973,1.079181,1.959041,2.681241,1.041393,0.30103,1.672098,0.778151,1.255273,1.662758,no
1.924279,0,2.103804,2.103804,2.103804,2.103804,0.30103,0.30103,0.30103,0.30103,1.414973,1.414973,1.079181,1.959041,2.681241,0.60206,0.477121,1.447158,0.477121,1.113943,1.30103,no
1.255273,0,1.591065,1.591065,1.591065,1.591065,0.30103,0.30103,0.30103,0.30103,1.414973,1.414973,1.079181,1.959041,2.681241,0.30103,0.477121,0.477121,0.30103,0.845098,0.60206,no
1.322219,0,1.633468,1.633468,1.633468,1.633468,0.30103,0.30103,0.30103,0.30103,1.414973,1.414973,1.079181,1.959041,2.681241,0.30103,0.477121,0.60206,0.30103,0.845098,0.69897,no
1.322219,0,1.633468,1.633468,1.633468,1.633468,0.30103,0.30103,0.30103,0.30103,1.414973,1.414973,1.079181,1.959041,2.681241,0.30103,0.477121,0.60206,0.30103,0.845098,0.69897,no
1.662758,0,2.403121,1.90309,2.635484,1.277838,1.39794,0.845098,0.09691,0.778151,2.378852,3.088136,1.675595,2.190332,0.845098,0.477121,0.477121,1.079181,0.477121,1.20412,0.778151,no
2.32838,0.778151,2.546543,2.247973,2.639486,1.866287,0.845098,0,0,0.30103,2.498311,3.088136,1.716003,1.770852,2.681241,1.491362,0.30103,1.579784,0.60206,1.568202,1.770852,no
1.880814,0,2.193125,1.826075,2.30103,1.212454,1.146128,0.477121,0.060698,0.69897,2.52714,3.088136,1.803047,1.770852,1.845098,0.954243,0.477121,1.113943,1.230449,0.845098,1.113943,no
2.257679,0.60206,2.632457,2.276462,2.797268,1.368473,1.462398,1,0.120574,0.69897,2.337539,3.088136,1.654946,1.770852,1.176091,0.845098,0.60206,1.361728,0.69897,1.255273,1.518514,no
2.045323,0.69897,2.40654,2.117271,2.561101,1.207634,1.39794,0.778151,0.082785,0.778151,2.392328,3.088136,1.710794,1.39794,1.041393,0.845098,0.477121,1.414973,0.69897,1.380211,1.230449,no
2.068186,0.845098,2.390935,2.004321,2.509203,1.521138,1.041393,0.60206,0.113943,0.30103,2.166134,3.088136,1.419956,1.78533,2.681241,0.778151,0.477121,1.623249,0.69897,1.30103,1.278754,no
2.537819,1.041393,2.678518,2.678518,2.678518,2.678518,0.30103,0,0,0.30103,1.39794,1.39794,1.255273,1.113943,1.342423,0.954243,0.477121,1.477121,0.30103,1.176091,1.431364,no
2.510545,1.146128,2.666518,2.58995,2.684845,2.085469,0.69897,0.477121,0.176091,0.60206,1.356981,1.612784,0.966142,2.0086,0.845098,0.954243,0.477121,1.544068,0.30103,1.113943,1.69897,no
2.30963,0.60206,2.471292,2.471292,2.471292,2.471292,0.30103,0,0,0.30103,1.39794,1.39794,1.255273,1.113943,1.342423,1,0.477121,1.579784,0.30103,1.20412,1.690196,no
2.139879,0.60206,2.30103,2.201397,2.318063,1.845098,0.60206,0.30103,0.123852,0.60206,1.452247,1.612784,1.0141,2.120574,0.845098,0.954243,0.477121,1.477121,0.30103,1.113943,1.556303,yes
2.359835,0.60206,2.4843,2.4843,2.4843,2.4843,0.30103,0,0,0.30103,1.39794,1.39794,1.255273,1.113943,1.342423,0.90309,0.477121,1.544068,0.30103,1.176091,1.544068,no
1.672098,0,2.235528,1.716003,2.429752,1.138618,1.342423,0.90309,0.123852,0.477121,2.416641,3.088136,1.706376,2.209515,2.518514,0.845098,0.477121,0.845098,0.60206,1,0.954243,no
2.767156,1.447158,3.106871,2.679428,3.238046,1.586475,1.672098,0.90309,0.060698,0.778151,2.151768,3.088136,1.527243,1.431364,0.30103,1.342423,0.477121,1.838849,1,1.491362,1.80618,no
1.944483,0.30103,2.462398,2.060698,2.657056,1.235023,1.462398,0.90309,0.09691,0.778151,2.317395,3.088136,1.633872,2.120574,1.845098,0.778151,0.60206,1.255273,0.778151,1.113943,1.30103,no
1.826075,0.30103,2.155336,2.123852,2.25042,1.419791,0.90309,0.30103,0.056905,0.30103,2.27777,3.088136,1.485295,1.78533,2.681241,0.778151,0.60206,1.361728,0.69897,1.146128,1.079181,no
2.257679,0,2.462398,2.403121,2.506505,1.442009,1.113943,0.60206,0.09691,0.60206,2.279713,3.088136,1.548144,1.770852,1.845098,1,0.60206,1.491362,0.778151,1.322219,1.447158,no
2.222716,0,2.679428,2.146128,2.858537,1.474799,1.414973,1,0.133539,0.845098,2.373206,3.088136,1.687351,1.770852,1.176091,1,0.60206,1.531479,1,1.322219,1.447158,no
1.755875,0,2.089905,2.025306,2.133539,1.371068,0.845098,0,0,0.477121,2.420781,3.088136,1.598462,2.269513,1.845098,0.477121,0.69897,1.079181,0.69897,1,1.079181,no
2.245513,0.845098,2.478566,2.332438,2.540329,1.381476,1.20412,0.778151,0.123852,0.60206,2.199563,3.088136,1.49596,1.770852,1.845098,0.954243,0.60206,1.544068,0.845098,1.380211,1.447158,no
1.755875,0.30103,2.100371,2.0086,2.146128,1.319314,0.90309,0,0,0.477121,2.415691,3.088136,1.623249,1.770852,1.845098,0.60206,0.69897,1.113943,0.69897,1,1.113943,no
1.30103,0.30103,1.851258,1.462398,1.968483,0.938019,1.113943,0.60206,0.09691,0.69897,2.558613,3.088136,1.819017,1.924279,1.845098,0.477121,0.477121,0.60206,0.60206,0.69897,0.69897,no
2.117271,0.778151,2.670246,2.068186,2.881385,1.290925,1.623249,1.113943,0.11059,0.845098,2.170614,3.088136,1.539202,1.78533,0.30103,0.845098,0.477121,1.623249,0.69897,1.361728,1.278754,no
1.414973,0,1.792392,1.778151,1.863323,1.39794,0.60206,0,0,0.30103,2.700418,3.088136,1.830396,2.269513,2.681241,0.477121,0.477121,0.845098,0.60206,0.954243,0.69897,no
1.799341,0.477121,2.100371,1.869232,2.190332,1.257918,1,0.477121,0.08636,0.477121,2.698101,3.088136,1.948853,2.064458,2.518514,0.477121,0.30103,0.90309,0.60206,0.845098,1.146128,no
1.477121,0,1.832509,1.732394,1.90309,1.15137,0.845098,0,0,0.477121,2.772688,3.088136,2.011444,2.269513,2.518514,0.60206,0.477121,0.60206,0.60206,0.90309,0.778151,no
1.778151,0,2.060698,1.908485,2.146128,1.173186,1.041393,0.477121,0.079181,0.60206,2.589503,3.088136,1.863323,2.269513,1.982271,0.845098,0.477121,1.146128,0.845098,0.954243,1,no
2.338456,0,2.570543,2.525045,2.605305,1.659631,1,0.30103,0.045323,0.477121,2.367561,3.088136,1.606811,1.770852,1.982271,0.845098,0.477121,1.342423,0.69897,1.278754,1.662758,no
2.164353,0.30103,2.646404,2.190332,2.836957,1.45393,1.414973,0.845098,0.093422,0.778151,2.365113,3.088136,1.67431,1.770852,1.176091,0.845098,0.477121,1.380211,0.845098,1.255273,1.39794,no
1.826075,0.30103,2.385606,1.90309,2.580925,1.193681,1.431364,0.954243,0.117271,0.69897,2.362822,3.088136,1.669596,1.770852,1.176091,0.69897,0.477121,1.113943,0.60206,1.146128,1.079181,no
1.90309,0.477121,2.155336,2.113943,2.212188,1.278754,1,0.477121,0.08636,0.30103,2.361312,3.088136,1.599665,1.770852,2.681241,0.69897,0.477121,1.176091,0.778151,1.176091,1.079181,no
1.278754,0,1.763428,1.342423,1.845098,0.897627,1.041393,0.477121,0.079181,0.60206,2.616686,3.088136,1.867467,2.269513,1.845098,0.477121,0.30103,0.30103,0.69897,0.477121,0.477121,no
2.053078,0.477121,2.1959,2.033424,2.201397,1.513218,0.778151,0.477121,0.146128,0.477121,2.505693,3.088136,1.719331,1.770852,1.863323,0.954243,0.477121,1.278754,0.477121,1.146128,1.361728,no
1.740363,0.60206,2.11059,1.39794,2.227887,0.973128,1.322219,0.69897,0.079181,0.60206,2.422015,3.088136,1.729974,1.770852,1.982271,1.146128,0.30103,1.041393,1.851258,1,1.176091,yes
1.770852,0.60206,2.033424,1.80618,2.049218,1.365488,0.778151,0,0,0.30103,2.571243,3.088136,1.788168,1.770852,2.681241,0.69897,0.477121,1,0.477121,0.954243,1.146128,yes
1.568202,0,2.31597,1.763428,2.536558,1.167908,1.414973,0.845098,0.093422,0.69897,2.374602,3.088136,1.681241,1.770852,1.176091,0.69897,0.60206,0.954243,1.20412,1.113943,0.778151,no
1.954243,0.954243,2.421604,2.045323,2.597695,1.193959,1.447158,0.90309,0.100371,0.60206,2.330556,3.088136,1.664172,2.269513,1.982271,0.778151,0.60206,1.556303,0.69897,1.380211,1.041393,no
2.356026,0.30103,2.599883,2.536558,2.632457,1.686279,1,0.30103,0.045323,0.477121,2.367356,3.088136,1.615108,1.770852,1.982271,0.90309,0.477121,1.414973,0.845098,1.30103,1.653213,no
1.491362,0,2.206826,1.869232,2.424882,1.174641,1.30103,0.845098,0.120574,0.60206,2.470675,3.088136,1.758685,1.770852,2.123852,0.60206,0.60206,0.90309,0.60206,1.113943,0.778151,no
2.426511,0.778151,2.783904,2.0086,2.93902,1.247728,1.724276,1.176091,0.103804,0.845098,2.131394,3.088136,1.521792,1.770852,1.041393,1.176091,0.477121,1.886491,0.954243,1.531479,1.748188,yes
1.919078,0,2.487138,1.982271,2.680336,1.338058,1.380211,0.845098,0.100371,0.69897,2.369772,3.088136,1.666424,2.120574,0.845098,0.60206,0.477121,1.079181,0.778151,1.041393,1.380211,no
1.886491,0,2.33646,2.170262,2.488551,1.595276,0.954243,0.30103,0.053078,0.30103,2.232996,3.088136,1.456821,1.78533,2.681241,0.90309,0.477121,1.342423,0.69897,1.230449,1.230449,no
1.431364,0,2.278754,1.799341,2.515874,1.282622,1.278754,0.69897,0.08636,0.60206,2.41283,3.088136,1.698014,2.269513,1.176091,0.69897,0.60206,0,0.954243,0.954243,0.69897,no
2.0086,0.60206,2.620136,1.857332,2.832509,1.25479,1.612784,1.041393,0.09691,0.69897,2.18625,3.088136,1.55206,1.78533,1.982271,0.845098,0.60206,1.544068,0.69897,1.342423,1.255273,no
1.30103,0.30103,1.913814,1.477121,2.082785,1.113943,1.041393,0.477121,0.079181,0.60206,2.654658,3.088136,1.911158,2.269513,1.041393,0.60206,0.60206,0.30103,0.30103,0.845098,0.60206,no
1.857332,0.30103,2.120574,1.78533,2.209515,1.069298,1.20412,0.60206,0.079181,0.60206,2.464087,3.088136,1.755341,1.770852,1.982271,0.954243,0.477121,0.90309,1.50515,0.90309,1.20412,no
1.531479,0.30103,2.064458,1.770852,2.227887,1.176091,1.113943,0.60206,0.09691,0.477121,2.591154,3.088136,1.852785,2.269513,2.518514,0.60206,0.477121,0.69897,0.30103,0.845098,0.90309,no
2.409933,0.778151,2.532754,2.532754,2.532754,2.532754,0.30103,0,0,0.30103,2.252853,2.252853,1.414973,2.017033,2.681241,1,0.60206,1.643453,0.30103,1.255273,1.716003,no
3.001301,1.826075,3.279439,2.488551,3.409595,1.6861,1.740363,1.041393,0.075547,0.90309,2.075145,3.088136,1.473925,1.113943,0.30103,1.662758,0.30103,2.170262,1.322219,2.049218,2.30963,no
2.816904,1.278754,3.286007,2.283301,3.473487,1.556182,1.934498,1.380211,0.103804,0.845098,1.984032,3.088136,1.412293,1.278754,0.845098,1.556303,0.778151,2.004321,1.740363,1.78533,2.025306,yes
1.90309,0.69897,2.079181,2,2.079181,1.487845,0.69897,0.477121,0.176091,0.30103,2.565257,3.088136,1.752048,2.269513,2.681241,1.146128,0.30103,1.079181,1.491362,0.60206,1.30103,no
2.342423,0.60206,2.570543,2.025306,2.656098,1.440752,1.255273,0.90309,0.149219,0.477121,2.042536,3.088136,1.367169,1.30103,1.845098,1.230449,0.477121,1.770852,0.30103,1.342423,1.763428,yes
1.612784,0.30103,2.247973,2,2.457882,1.394977,1.113943,0.30103,0.033424,0.477121,2.630936,3.088136,1.904878,1.770852,2.518514,0.477121,0.30103,0.90309,1.176091,1,0.90309,no
2.201397,0,2.537819,2.053078,2.672098,1.456214,1.255273,0.845098,0.130334,0.778151,2.453227,3.088136,1.744058,1.78533,1.845098,0.778151,0.30103,1.477121,0.845098,1.113943,1.568202,no
1.491362,0.30103,1.869232,1.851258,1.875061,1.409426,0.60206,0,0,0.30103,2.620136,3.088136,1.740363,2.217484,2.681241,0.477121,0.30103,1.041393,0.477121,0.845098,0.845098,no
2.843855,1.20412,3.102777,2.742725,3.210319,1.818754,1.414973,0.954243,0.120574,0.477121,2.009111,3.088136,1.366983,1.792392,1.845098,1.255273,0.477121,2.060698,0.477121,1.70757,2.20412,yes
2.369216,1.079181,2.618048,2.570543,2.670246,1.567262,1.146128,0.69897,0.117271,0.30103,2.173856,3.088136,1.465829,2.025306,2.681241,1.146128,0.477121,1.724276,0.60206,1.556303,1.60206,no
2.919078,1.591065,3.286456,2.793092,3.434888,1.896195,1.556303,1.278754,0.178977,0.30103,1.892873,3.088136,1.308351,1.838849,2.681241,1.361728,0.477121,2.053078,0.69897,1.826075,2.079181,no
2.130334,0.90309,2.348305,2.324282,2.371068,1.774517,0.69897,0,0,0.30103,2.621695,3.088136,1.778151,2.017033,2.681241,1.462398,0.477121,1.568202,0.90309,1.531479,1.491362,no
1.934498,0.69897,2.198657,2.064458,2.269513,1.215373,1.113943,0.60206,0.09691,0.30103,2.28142,3.088136,1.594724,2.269513,2.681241,1.20412,0.30103,1.230449,1.556303,1,1.342423,no
2.372912,0.60206,2.536558,2.480007,2.563481,1.964966,0.69897,0.30103,0.09691,0.30103,1.872156,2.252853,1.356981,0.778151,2.681241,1.30103,0.60206,1.544068,0.477121,1.50515,1.763428,no
2.778151,0.845098,3.006038,2.495544,3.117603,1.867939,1.278754,0.778151,0.10721,0.60206,2.408715,3.088136,1.694078,1.431364,1.863323,0.954243,0.477121,1.875061,0.90309,1.230449,2.100371,no
1.322219,0.477121,1.653213,1.60206,1.653213,1.195069,0.60206,0,0,0.30103,2.691373,3.088136,1.875061,2.269513,2.681241,0.60206,0.30103,0.845098,0.90309,0.477121,0.60206,no
2.089905,0.69897,2.445604,2.235528,2.563481,1.533772,1.079181,0.30103,0.037426,0.477121,2.288808,3.088136,1.645226,1.851258,1.982271,1.447158,0.477121,1.278754,1.414973,1.146128,1.518514,yes
2.445604,0.60206,2.753583,2.278754,2.905796,1.404149,1.531479,0.778151,0.060698,0.778151,2.277013,3.088136,1.639885,1.770852,1.863323,1.414973,0.30103,1.69897,0.69897,1.230449,1.886491,yes
1.70757,0.477121,2.238046,1.462398,2.409933,1.120245,1.342423,0.90309,0.123852,0.60206,2.395623,3.088136,1.705094,1.954243,1.845098,0.69897,0.30103,1.041393,1.146128,0.778151,1.20412,no
1.278754,0,1.612784,1.612784,1.612784,1.612784,0.30103,0.30103,0.30103,0.30103,0.90309,0.90309,0.90309,2.075547,2.681241,0.60206,0.30103,0,0,0.477121,0.69897,no
1.886491,0.69897,2.190332,2.120574,2.20412,1.439333,0.845098,0,0,0.477121,2.83187,3.088136,2.069409,2.269513,2.518514,0.954243,0.30103,1.278754,0.30103,0.477121,1.30103,no
1.959041,0.69897,2.089905,2.089905,2.089905,1.792392,0.477121,0,0,0.477121,2.830268,3.088136,1.954243,2.269513,1.845098,0.954243,0.30103,1.113943,0.477121,0.90309,1.278754,no
1.477121,0,1.812913,1.78533,1.875061,1.409426,0.60206,0.30103,0.123852,0.60206,2.662446,3.088136,1.819544,2.117271,1.845098,0.845098,0.30103,0.69897,0.60206,0.30103,0.845098,no
1.913814,0.69897,2.064458,2.041393,2.068186,1.598462,0.60206,0.30103,0.123852,0.60206,2.662446,3.088136,1.819544,2.117271,1.845098,1.146128,0.30103,1,0.477121,0.845098,1.255273,no
2.285557,1.176091,3.031408,2.453318,3.271144,1.747256,1.544068,1.146128,0.139879,0.778151,2.209032,3.088136,1.563718,1.851258,1.041393,0.954243,0.30103,1.612784,1.079181,1.255273,1.591065,yes
1.39794,0,1.690196,1.230449,1.886491,0.974972,1,0,0,0.60206,2.605424,3.088136,1.862012,2.269513,1.863323,0.845098,0.477121,0,0.778151,0.60206,0.845098,no
1.934498,0.90309,2.238046,2.103804,2.346353,1.512818,0.90309,0,0,0.477121,2.766733,3.088136,2.009833,2.269513,2.518514,1.176091,0.30103,1.278754,0.477121,0.30103,1.447158,no
2.079181,0.90309,2.252853,2.252853,2.252853,2.252853,0.30103,0,0,0.30103,1.70757,1.70757,1.255273,1.491362,1.322219,1.230449,0.30103,1.431364,0.30103,0.60206,1.39794,no
1.69897,0.60206,2.675778,2.633468,2.937518,2.240549,0.778151,0.30103,0.079181,0.477121,2.481156,3.088136,1.722634,2.269513,1.982271,0.90309,0.30103,0.69897,1.113943,1.079181,0.90309,yes
2.255273,0.69897,2.394452,2.394452,2.394452,2.095169,0.477121,0,0,0.477121,2.797268,3.088136,1.889302,2.269513,1.863323,1,0.30103,1.70757,0.30103,0.845098,1.531479,no
2.836324,1.748188,3.139564,2.599883,3.263873,1.559787,1.724276,1.255273,0.123852,0.845098,2.024609,3.088136,1.424228,1.491362,1.322219,0.954243,0.60206,1.792392,0.60206,1.462398,1.531479,yes
1.690196,0,1.982271,1.857332,2.056905,1.297323,0.845098,0.30103,0.068186,0.477121,2.775487,3.088136,2.024609,2.269513,2.518514,0.954243,0.477121,0,0.778151,0.778151,0.954243,no
1.20412,0.30103,1.662758,1.556303,1.732394,1.153815,0.69897,0,0,0.477121,2.934625,3.088136,2.168055,2.269513,2.518514,0.30103,0.477121,0,0,0.60206,0.30103,no
1.544068,0,1.838849,1.778151,1.880814,1.414973,0.60206,0,0,0.60206,2.66339,3.088136,1.801609,2.269513,1.845098,0.845098,0.60206,0.30103,0.30103,0.69897,0.845098,no
1.361728,0,1.755875,1.643453,1.832509,1.158362,0.778151,0,0,0.477121,2.853941,3.088136,2.100371,2.269513,2.518514,0.477121,0.60206,0.30103,0,0.778151,0.477121,no
1.30103,0,1.662758,1.662758,1.662758,1.371068,0.477121,0,0,0.30103,2.801404,3.088136,1.90309,2.269513,2.681241,0.60206,0.477121,0,0,0.69897,0.60206,yes
1.30103,0,1.255273,1.255273,1.361728,1.079181,0.477121,0,0,0.30103,2.801404,3.088136,1.90309,2.269513,2.681241,0.60206,0.60206,0.30103,0,0.69897,0.60206,no
1.113943,0,1.342423,1.041393,1.653213,0.991226,0.778151,0.30103,0.079181,0.477121,2.840106,3.088136,2.078457,2.269513,2.518514,0.477121,0.60206,0,0.30103,0.477121,0.477121,no
1.146128,0,1.30103,1.230449,1.431364,0.875061,0.69897,0,0,0.477121,2.934625,3.088136,2.168055,2.269513,2.518514,0.477121,0.477121,0,1.20412,0.60206,0.477121,no
1.230449,0,1.431364,1.176091,1.69897,1.033424,0.778151,0,0,0.477121,2.842859,3.088136,2.082067,2.269513,2.518514,0.477121,0.477121,0,0,0.477121,0.477121,no
1.643453,0,1.973128,1.70757,2.053078,1.176091,0.954243,0,0,0.477121,2.410355,3.088136,1.708676,2.209515,1.863323,0.90309,0.477121,0.60206,0.477121,0.778151,0.90309,no
1.146128,0,1.342423,1.113943,1.672098,1.0086,0.778151,0,0,0.477121,2.853941,3.088136,2.100371,2.269513,2.518514,0.477121,0.60206,0.30103,0,0.60206,0.477121,no
1.740363,0.30103,1.944483,1.944483,1.944483,1.64836,0.477121,0,0,0.477121,2.797268,3.088136,1.889302,2.269513,1.863323,0.60206,0.60206,0,0.477121,0.845098,0.60206,yes
1.30103,0,1.748188,1.633468,1.838849,1.029789,0.90309,0,0,0.477121,2.723571,3.088136,1.992509,2.269513,2.518514,0.60206,0.60206,0.30103,0.69897,0.69897,0.60206,no
1.20412,0,1.690196,1.568202,1.770852,1.100371,0.778151,0,0,0.477121,2.853941,3.088136,2.100371,2.269513,2.518514,0.477121,0.60206,0,0.60206,0.60206,0.477121,yes
1.113943,0,1.544068,1.544068,1.544068,1.255273,0.477121,0.30103,0.176091,0.30103,2.79379,3.088136,1.889302,2.269513,2.681241,0.477121,0.60206,0,0,0.477121,0.477121,no
1.146128,0,1.30103,1.113943,1.633468,0.973128,0.778151,0,0,0.477121,2.853941,3.088136,2.100371,2.269513,2.518514,0.477121,0.477121,0,1.146128,0.60206,0.477121,no
1.278754,0,1.851258,1.342423,1.991226,0.992111,1.079181,0.30103,0.037426,0.477121,2.640571,3.088136,1.921946,2.269513,2.518514,0.60206,0.60206,0.30103,0.60206,0.778151,0.60206,no
1.322219,0,1.80618,1.672098,1.924279,1.109241,0.90309,0,0,0.69897,2.701447,3.088136,1.945912,1.491362,1.322219,0.60206,0.60206,0,0.60206,0.69897,0.60206,yes
1.176091,0,1.30103,1.230449,1.431364,0.875061,0.69897,0,0,0.477121,2.934625,3.088136,2.168055,2.269513,2.518514,0.477121,0.477121,0,1.230449,0.60206,0.477121,no
1.20412,0,1.579784,1.579784,1.579784,1.290035,0.477121,0,0,0.477121,2.794488,3.088136,1.880814,2.269513,1.863323,0.477121,0.60206,0,0,0.69897,0.477121,no
1.176091,0,1.799341,1.342423,1.94939,0.920645,1.113943,0.30103,0.033424,0.69897,2.585088,3.088136,1.868233,2.269513,1.863323,0.477121,0.60206,0,0.477121,0.60206,0.477121,no
1.146128,0,1.681241,1.531479,1.778151,0.923244,0.954243,0,0,0.60206,2.664059,3.088136,1.931966,2.269513,1.863323,0.477121,0.60206,0.30103,0.477121,0.60206,0.477121,no
1.146128,0,1.278754,1.20412,1.414973,0.860338,0.69897,0,0,0.477121,2.934625,3.088136,2.168055,2.269513,2.518514,0.477121,0.477121,0,1,0.60206,0.477121,no
1.278754,0,1.755875,1.531479,1.857332,0.948902,1,0,0,0.60206,2.614897,3.088136,1.886491,2.269513,1.863323,0.60206,0.60206,0.477121,0.477121,0.60206,0.60206,no
1.591065,0,1.908485,1.690196,1.977724,1.159266,0.90309,0,0,0.60206,2.724743,3.088136,1.994361,1.491362,1.322219,0.778151,0.477121,0,1.041393,0.778151,0.778151,yes
1.278754,0,1.792392,1.60206,1.913814,1.046495,0.954243,0,0,0.60206,2.660752,3.088136,1.917768,2.269513,1.863323,0.477121,0.477121,0,0.90309,0.60206,0.477121,no
1.146128,0,1.176091,1.079181,1.491362,0.929419,0.69897,0,0,0.477121,2.934625,3.088136,2.168055,2.269513,2.518514,0.477121,0.60206,0.30103,0.778151,0.60206,0.477121,no
1.255273,0,1.653213,1.612784,1.690196,1.230449,0.60206,0,0,0.60206,2.627366,3.088136,1.737749,2.245513,1.863323,0.477121,0.60206,0,0.60206,0.845098,0.477121,no
1.612784,0,1.869232,1.869232,1.869232,1.574031,0.477121,0,0,0.477121,2.797268,3.088136,1.889302,2.269513,1.863323,0.845098,0.30103,0.477121,0.90309,0.60206,1.079181,no
1.633468,0.60206,1.838849,1.838849,1.838849,1.544068,0.477121,0,0,0.477121,2.797268,3.088136,1.889302,2.269513,1.863323,0.60206,0.30103,1,0.477121,0.69897,1,no
2.894316,1.531479,3.287354,2.5302,3.46434,1.594614,1.886491,1.20412,0.079181,0.90309,2.006295,3.088136,1.43361,1.113943,0.30103,1.431364,0.477121,2.296665,0.69897,2.0086,2.149219,yes
2.502427,0.954243,2.627366,2.625312,2.62941,2.154333,0.60206,0,0,0.477121,2.691373,3.088136,1.82393,2.269513,1.863323,1.113943,0.30103,1.755875,0.30103,1.113943,1.732394,no
2.307496,1.230449,2.445604,2.445604,2.445604,2.445604,0.30103,0,0,0.30103,1.579784,1.579784,1.30103,1.799341,1.342423,1,0.30103,1.643453,0.477121,1.146128,1.361728,no
1.732394,0,1.954243,1.954243,1.954243,1.954243,0.30103,0,0,0.30103,1.579784,1.579784,1.30103,1.799341,1.342423,1.176091,0.30103,0,0.477121,0,1.176091,no
1.342423,0,1.662758,1.662758,1.662758,1.662758,0.30103,0,0,0.30103,2.40824,2.40824,1.778151,1.770852,2.681241,0.60206,0.60206,0,0,0.69897,0.60206,yes
2.627366,1.556303,2.727541,2.710117,2.737987,1.897627,0.90309,0,0,0.778151,2.339591,3.088136,1.545802,1.491362,1.322219,1.176091,0.60206,2.082785,0.477121,1.672098,1.851258,yes
1.50515,0,1.763428,1.740363,1.770852,1.308137,0.60206,0,0,0.477121,2.695482,3.088136,1.884625,2.269513,1.863323,0.477121,0.30103,0.30103,0.30103,0.69897,0.477121,no
1.681241,0,1.913814,1.875061,1.94939,1.481872,0.60206,0,0,0.477121,2.632457,3.088136,1.76095,2.269513,1.863323,0.60206,0.30103,0.778151,0.60206,0.90309,0.778151,no
2.100371,0.60206,2.220108,2.220108,2.220108,2.220108,0.30103,0,0,0.30103,1.447158,1.447158,1.30103,1.462398,0.845098,1,0.30103,1.146128,0.477121,1.230449,1.361728,no
2.884229,1.531479,3.256237,2.670246,3.419791,1.688242,1.748188,1.255273,0.117271,0.954243,2.040325,3.088136,1.444669,1,0.30103,1.361728,0.30103,1.690196,1.491362,1.60206,1.477121,yes
1.944483,0,2.209515,2.10721,2.283301,1.346744,1,0.477121,0.08636,0.477121,2.263778,3.088136,1.522835,2.209515,1.863323,1.361728,0.30103,0.477121,1,0.69897,1.361728,yes
2.350248,1.176091,2.61066,2.456366,2.715167,1.353724,1.39794,0.778151,0.082785,0.69897,2.029911,3.088136,1.411451,1.491362,1.322219,1.20412,0.477121,1.832509,1.041393,1.531479,1.544068,yes
1.322219,0,1.662758,1.643453,1.672098,1.212986,0.60206,0,0,0.30103,2.668078,3.088136,1.826075,2.269513,2.681241,0.477121,0.477121,0,0.90309,0.60206,0.477121,yes
2.290035,0.69897,2.49276,2.238046,2.557507,1.299943,1.30103,0.60206,0.064458,0.69897,2.09121,3.088136,1.457579,1.491362,1.322219,1.255273,0.477121,1.740363,1.041393,1.39794,1.39794,yes
2.686636,1.431364,3.186108,2.912753,3.388456,1.815179,1.591065,1.041393,0.100371,0.90309,1.943593,3.088136,1.381656,1.491362,0.30103,1.230449,0.778151,1.838849,1.146128,1.653213,1.591065,yes
2.32838,1.176091,2.472756,2.320146,2.518514,1.262925,1.30103,0.30103,0.021189,0.778151,2.052655,3.088136,1.401573,1.491362,0.30103,1.20412,0.477121,1.812913,0.954243,1.681241,1.544068,yes
2.049218,0.69897,2.227887,2.184691,2.274158,1.507451,0.845098,0.30103,0.068186,0.60206,2.415524,3.088136,1.667453,2.269513,1.863323,0.90309,0.477121,1.556303,0.477121,1.041393,1.176091,no
2.665581,1.447158,2.97174,2.649335,3.104487,1.494989,1.633468,1.113943,0.11059,0.845098,1.872855,3.088136,1.330414,1.778151,1.322219,1.39794,0.477121,1.94939,1.230449,1.892095,1.778151,yes
2.814248,1.39794,3.051538,2.687529,3.155943,1.555094,1.623249,1.146128,0.120574,0.90309,2.097084,3.088136,1.486572,1,0.30103,1.643453,0.30103,1.897627,1.477121,1.755875,1.857332,yes
2.541579,1.380211,2.766413,2.511883,2.859739,1.413803,1.477121,0.845098,0.082785,0.845098,2.18625,3.088136,1.544936,1.491362,1.322219,1.255273,0.30103,1.681241,1.380211,1.60206,1.477121,yes
2.975891,1.591065,3.377306,2.662758,3.55084,1.702086,1.863323,1.50515,0.155336,0.954243,1.932118,3.088136,1.371806,1.079181,0.30103,1.322219,0.30103,2.348305,0.69897,1.78533,2.318063,yes
3.006466,1.819544,3.437433,2.877947,3.623042,1.697229,1.939519,1.579784,0.155336,0.954243,1.896802,3.088136,1.346157,0.954243,0.30103,1.755875,0.30103,2.09691,1.544068,1.90309,1.939519,yes
2.193125,0.90309,2.419956,2.404834,2.450249,1.852785,0.69897,0,0,0.477121,2.579784,3.088136,1.779957,1.491362,1.322219,0.90309,0.477121,1.880814,0.60206,1.380211,1.230449,no
1.612784,0.30103,1.995635,1.929419,2.025306,1.435367,0.69897,0.30103,0.09691,0.60206,2.513551,3.088136,1.64836,1.491362,1.322219,0.90309,0.30103,0.60206,0.954243,0.69897,0.90309,yes
1.792392,0.30103,2.11059,2.082785,2.1959,1.60206,0.69897,0,0,0.477121,2.554186,3.088136,1.732394,2.269513,1.863323,1.20412,0.477121,0,0.477121,1.079181,1.20412,yes
1.792392,0.30103,1.973128,1.681241,1.973128,1.384712,0.69897,0,0,0.477121,2.55206,3.088136,1.72632,2.269513,1.863323,0.90309,0.477121,1.176091,0.778151,0.778151,0.954243,yes
2.614897,1.322219,3.088845,2.596597,3.281033,2.006338,1.30103,0.90309,0.136721,0.778151,2.003633,3.088136,1.351603,1.491362,1.322219,1.30103,0.60206,1.897627,0.90309,1.568202,1.69897,yes
2.230449,0.90309,2.495544,2.472756,2.575188,1.976579,0.69897,0.30103,0.09691,0.60206,2.513551,3.088136,1.64836,1.491362,1.322219,1,0.30103,1.39794,1.322219,1.255273,1.113943,no
1.113943,0,1.612784,1.579784,1.643453,1.185542,0.60206,0,0,0.477121,2.633468,3.088136,1.75074,1.491362,1.322219,0.477121,0.477121,0,1.041393,0.477121,0.477121,no
1.447158,0,1.770852,1.755875,1.78533,1.322219,0.60206,0,0,0.477121,2.633468,3.088136,1.75074,1.491362,1.322219,0.60206,0.477121,0.954243,0.60206,0.954243,0.60206,no
1.079181,0,1.568202,1.556303,1.579784,1.12483,0.60206,0,0,0.477121,2.633468,3.088136,1.75074,1.491362,1.322219,0.477121,0.60206,0,0.477121,0.477121,0.477121,no
2.214844,0.477121,2.679428,2.290035,2.857332,1.862728,1.041393,0.60206,0.113943,0.60206,2.21643,3.088136,1.495544,2.269513,1.863323,1.491362,0.30103,0.90309,1.30103,0.60206,1.544068,no
1.431364,0,1.748188,1.740363,1.755875,1.293804,0.60206,0,0,0.477121,2.633468,3.088136,1.75074,1.491362,1.322219,0.778151,0.60206,0,0.477121,0.30103,0.778151,no
1.380211,0.30103,1.755875,1.681241,1.80618,1.342423,0.60206,0,0,0.60206,2.627366,3.088136,1.737749,2.245513,1.863323,0.778151,0.30103,0.778151,0.477121,0.477121,0.90309,no
2.173186,0.90309,2.369216,2.09691,2.432969,1.491362,1,0,0,0.60206,2.281033,3.088136,1.609274,1.462398,0.845098,1.30103,0.30103,1.643453,1.431364,1.041393,1.447158,no
1.113943,0,1.113943,1.113943,1.30103,1.021189,0.477121,0,0,0.30103,2.861833,3.088136,2.03543,2.269513,2.681241,0.477121,0.477121,0,0.477121,0.477121,0.477121,no
1.447158,0,1.740363,1.732394,1.748188,1.286232,0.60206,0,0,0.30103,2.714053,3.088136,1.932829,1.851258,2.681241,0.60206,0.477121,0.954243,0.477121,0.954243,0.60206,no
2.025306,0.845098,2.173186,2.146128,2.184691,1.713238,0.60206,0,0,0.477121,2.694017,3.088136,1.897627,1.462398,0.845098,1.146128,0.477121,1.447158,0.69897,1.041393,1.342423,no
2.247973,1,2.380211,2.371068,2.392697,1.700704,0.778151,0.30103,0.079181,0.477121,2.496653,3.088136,1.702431,2.269513,1.863323,1,0.477121,1.447158,1.079181,1.041393,1.322219,no
2.20412,0.954243,2.462398,2.214844,2.570543,1.334655,1.278754,0.69897,0.08636,0.778151,2.074743,3.088136,1.41397,1.491362,1.322219,0.90309,0.477121,1.763428,0.69897,1.491362,1.278754,yes
2.619093,1.50515,3.216166,2.627366,3.438226,1.5636,1.892095,0.954243,0.041393,0.954243,1.893484,3.088136,1.317854,0.778151,0.30103,1.431364,0.477121,2.068186,1.380211,1.908485,1.799341,yes
2.840733,1.612784,3.179839,2.691081,3.341435,1.619406,1.740363,1,0.068186,0.90309,2.024404,3.088136,1.460447,0.778151,0.845098,0.69897,0.477121,1.30103,0.69897,1.146128,0.90309,yes
2.10721,0.477121,2.389166,2.232996,2.50515,1.34772,1.20412,0.60206,0.079181,0.69897,2.077731,3.088136,1.38739,1.491362,1.322219,0.69897,0.477121,1.278754,0.778151,1.113943,0.845098,yes
1.447158,0,1.770852,1.681241,1.819544,1.236789,0.69897,0,0,0.30103,2.694605,3.088136,1.89487,2.269513,2.681241,0.60206,0.477121,0,0.845098,0.69897,0.60206,yes
1.579784,0,1.838849,1.838849,1.857332,1.562293,0.477121,0,0,0.477121,2.797268,3.088136,1.889302,2.269513,1.863323,0.954243,0.30103,0,0.90309,0.477121,0.954243,no
1.653213,0.60206,2.0086,1.875061,2.127105,1.534661,0.69897,0,0,0.477121,2.505828,3.088136,1.618048,2.269513,1.863323,0.60206,0.30103,1,0.477121,0.845098,1,no
1.568202,0.60206,1.863323,1.799341,1.908485,1.230449,0.778151,0,0,0.477121,2.845346,3.088136,2.098298,2.269513,2.518514,0.477121,0.30103,0.90309,0.30103,0.30103,0.845098,no
1.477121,0.30103,1.748188,1.748188,1.748188,1.748188,0.30103,0,0,0.30103,1.079181,1.079181,0.90309,2.198657,1.982271,0.845098,0.30103,0.60206,0.30103,0.477121,0.845098,no
1.255273,0,1.681241,1.681241,1.681241,1.681241,0.30103,0,0,0.30103,1.079181,1.079181,0.90309,2.198657,1.982271,0,0.30103,0,0,0,0,no
2.041393,0.845098,2.170262,2.170262,2.170262,2.170262,0.30103,0,0,0.30103,1.079181,1.079181,0.90309,2.198657,1.982271,1.079181,0.30103,1.39794,0.69897,1.041393,1.278754,yes
1.342423,0.30103,1.662758,1.623249,1.672098,1.09691,0.69897,0,0,0.477121,2.55206,3.088136,1.72632,2.269513,1.863323,0.69897,0.30103,0.954243,0.845098,0.778151,0.69897,no
1.380211,0.30103,1.716003,1.462398,1.755875,1.0141,0.845098,0.477121,0.123852,0.69897,2.763181,3.088136,2.006466,2.269513,1.863323,0.30103,0.30103,0.778151,0.30103,0.69897,0.30103,no
2.053078,1.176091,2.344392,2.130334,2.465383,1.338257,1.176091,0.477121,0.056905,0.60206,2.543087,3.088136,1.835691,2.240549,1.041393,0.60206,0.30103,1.431364,0.30103,1.322219,1.230449,no
2.305351,0.778151,2.414973,2.060698,2.431364,1.33626,1.146128,0.60206,0.089905,0.69897,2.102742,3.088136,1.385785,0.778151,1.322219,1.146128,0.30103,1.361728,0.845098,1.146128,1.380211,no
2.1959,0.778151,2.346353,2.346353,2.346353,2.346353,0.30103,0,0,0.30103,0.69897,0.69897,0.69897,1.079181,1.322219,1.041393,0.30103,1.380211,0.60206,0.90309,1.230449,no
1.361728,0.30103,1.643453,1.643453,1.643453,1.352183,0.477121,0,0,0.477121,2.798651,3.088136,1.897627,2.269513,1.863323,0.477121,0.30103,0.477121,0.477121,0.477121,0.69897,no
1.579784,0,1.812913,1.812913,1.812913,1.518514,0.477121,0,0,0.477121,2.798651,3.088136,1.897627,2.269513,1.863323,0.30103,0.30103,0.30103,0.30103,0.60206,0.30103,no
1.322219,0,1.643453,1.643453,1.643453,1.352183,0.477121,0,0,0.477121,2.798651,3.088136,1.897627,2.269513,1.863323,0.477121,0.30103,0.477121,0.30103,0.477121,0.69897,no
1.447158,0,1.716003,1.716003,1.716003,1.423246,0.477121,0,0,0.477121,2.798651,3.088136,1.897627,2.269513,1.863323,0.477121,0.30103,0.778151,0.477121,0.477121,0.845098,no
2.31597,0.778151,2.4133,2.4133,2.4133,2.113943,0.477121,0,0,0.477121,2.798651,3.088136,1.897627,2.269513,1.863323,1.255273,0.60206,1.662758,0.30103,1.113943,1.60206,no
1.69897,0.30103,1.908485,1.908485,1.908485,1.612784,0.477121,0,0,0.477121,2.798651,3.088136,1.897627,2.269513,1.863323,0.30103,0.477121,1.255273,0.30103,0.845098,1.079181,no
1.113943,0,1.518514,1.518514,1.518514,1.230449,0.477121,0,0,0.477121,2.798651,3.088136,1.897627,2.269513,1.863323,0.477121,0.69897,0.30103,0,0.30103,0.477121,no
1.556303,0.60206,1.770852,1.763428,1.770852,1.308137,0.60206,0,0,0.60206,2.644439,3.088136,1.770852,2.269513,1.863323,0.477121,0.69897,1.041393,0.30103,0.60206,0.90309,no
2.123852,0.954243,2.255273,2.255273,2.255273,1.956649,0.477121,0,0,0.477121,2.798651,3.088136,1.897627,2.269513,1.863323,1.146128,0.60206,1.568202,0.60206,1.079181,1.518514,no
1.041393,0.477121,1.50515,1.50515,1.50515,1.217484,0.477121,0,0,0.477121,2.798651,3.088136,1.897627,2.269513,1.863323,0.30103,0.477121,0,0,0.845098,0.30103,no
2.267172,0.30103,2.367356,2.367356,2.367356,2.068186,0.477121,0,0,0.477121,2.798651,3.088136,1.897627,2.269513,1.863323,0.954243,0.30103,1.568202,0.90309,0.954243,1.556303,no
2.167317,0.778151,2.318063,2.31597,2.320146,1.847141,0.60206,0,0,0.60206,2.644439,3.088136,1.770852,2.269513,1.863323,1.176091,0.477121,1.50515,0.845098,1,1.30103,no
1.732394,0.477121,1.939519,1.939519,1.939519,1.643453,0.477121,0,0,0.477121,2.798651,3.088136,1.897627,2.269513,1.863323,0.90309,0.477121,0.778151,0.69897,0.69897,1.20412,no
1.973128,0.60206,2.127105,2.127105,2.127105,1.829304,0.477121,0,0,0.477121,2.798651,3.088136,1.897627,2.269513,1.863323,1.255273,0.30103,1.30103,1.079181,1.113943,1.39794,no
2.209515,1.079181,2.330414,2.330414,2.330414,2.031408,0.477121,0,0,0.477121,2.798651,3.088136,1.897627,2.269513,1.863323,0.90309,0.477121,1.633468,0.90309,1.176091,1.414973,no
2.481443,1.230449,2.693727,2.655138,2.732394,1.834929,0.954243,0.477121,0.09691,0.477121,2.715586,3.088136,1.966142,2.269513,2.518514,1.322219,0.30103,1.857332,0.69897,1.278754,1.826075,no
2.58995,1.342423,2.738781,2.557507,2.800717,1.851931,1,0.60206,0.123852,0.69897,2.223002,3.088136,1.488269,1.799341,1.342423,0.778151,0.69897,1.591065,0.477121,1.146128,1.50515,yes
1.662758,0.778151,2.025306,1.69897,2.152288,1.10551,1.113943,0.30103,0.033424,0.60206,2.585833,3.088136,1.880814,2.269513,1.041393,0.69897,0.477121,0.90309,0.60206,0.90309,1,no
1.568202,0,1.991226,1.90309,2.100371,1.339054,0.845098,0.477121,0.123852,0.60206,2.393277,3.088136,1.585461,1.491362,1.322219,0.954243,0.477121,1,1.113943,0.90309,0.954243,yes
1.748188,0.477121,1.991226,1.863323,2.033424,1.211921,0.90309,0.30103,0.056905,0.477121,2.765348,3.088136,2.005567,2.269513,2.518514,0.778151,0.30103,1.230449,0.69897,1.079181,0.778151,no
2.167317,0.845098,2.523746,2.269513,2.670246,1.567262,1.146128,0.60206,0.089905,0.477121,2.508058,3.088136,1.77873,2.269513,2.518514,0.845098,0.477121,1.50515,0.60206,1.342423,1.462398,no
1.361728,0,1.838849,1.633468,1.913814,1.099335,0.90309,0.30103,0.056905,0.477121,2.765452,3.088136,2.005567,2.269513,2.518514,0.477121,0.30103,0.477121,0.30103,0.90309,0.477121,no
1.556303,0.30103,1.880814,1.690196,1.913814,1.099335,0.90309,0.30103,0.056905,0.477121,2.766941,3.088136,2.013427,2.269513,2.518514,0.60206,0.30103,1.079181,0.69897,0.30103,0.845098,no
1.973128,0.845098,2.382017,1.959041,2.547775,1.361728,1.230449,0.778151,0.117271,0.60206,2.451495,3.088136,1.744762,2.269513,2.123852,0.778151,0.30103,1.462398,0.30103,1.113943,1.342423,no
1.50515,0,1.880814,1.662758,1.977724,1.058426,1,0.60206,0.123852,0.477121,2.659384,3.088136,1.905472,2.269513,2.518514,0.477121,0.30103,0.845098,0.477121,0.845098,1,no
1.431364,0.30103,1.778151,1.579784,1.832509,1.024075,0.90309,0,0,0.477121,2.76726,3.088136,2.012247,2.269513,2.518514,0.778151,0.30103,0.477121,1.079181,0.30103,0.778151,no
1.886491,0.845098,2.064458,2.064458,2.064458,1.767156,0.477121,0.30103,0.176091,0.477121,2.79134,3.088136,1.880814,2.269513,1.982271,0.69897,0.30103,1.079181,0.60206,0.845098,1,no
1.278754,0,1.623249,1.623249,1.623249,1.623249,0.30103,0,0,0.30103,1.322219,1.322219,0.954243,1.556303,1.322219,0.477121,0.477121,0,0,0.60206,0.477121,no
1.531479,0,1.812913,1.716003,1.845098,1.550228,0.477121,0,0,0.30103,1.556303,1.70757,1.130334,1.491362,1.322219,0.778151,0.60206,0,0,0.69897,0.778151,no
0.90309,0,1.462398,1.462398,1.462398,1.462398,0.30103,0,0,0.30103,1.322219,1.322219,0.954243,1.556303,1.322219,0.30103,0.60206,0,0,0.477121,0.30103,no
2.540329,1.30103,2.657056,2.641474,2.661813,2.062582,0.69897,0.30103,0.09691,0.30103,1.322219,1.70757,0.942008,1.431364,1.322219,1.431364,0.30103,2.004321,0.477121,1.544068,1.662758,yes
1.944483,1,2.176091,2.146128,2.245513,1.946943,0.477121,0,0,0.477121,2.14145,2.40824,1.537819,1.556303,1.322219,0.90309,0.30103,1.278754,0.477121,1.041393,1.278754,no
2.401401,1.146128,2.775246,2.264818,2.936514,1.473779,1.491362,1,0.113943,0.90309,2.186391,3.088136,1.510947,1.431364,0.30103,0.954243,0.477121,1.431364,0.778151,1.230449,1.30103,yes
2.311754,0.30103,2.457882,2.305351,2.472756,1.779596,0.778151,0.60206,0.20412,0.69897,1.133539,1.556303,0.892095,1.113943,0.30103,1.50515,0.30103,1.662758,1.176091,1.041393,1.623249,no
1.886491,0.845098,2.176091,1.991226,2.269513,1.290035,1.041393,0.477121,0.079181,0.60206,2.633569,3.088136,1.898725,2.269513,2.123852,0.69897,0.30103,1.342423,0.477121,0.954243,1.278754,no
1.278754,0,1.763428,1.462398,1.851258,0.943495,1,0.477121,0.08636,0.477121,2.674144,3.088136,1.928857,2.269513,2.518514,0.477121,0.30103,0.60206,0,0.477121,0.477121,no
2.056905,0.90309,2.419956,1.724276,2.558709,1.240799,1.361728,0.954243,0.133539,0.60206,2.319855,3.088136,1.642563,2.269513,1.863323,0.477121,0.30103,1.342423,0.60206,1.255273,1.342423,no
1.39794,0.30103,1.653213,1.255273,2.068186,1.190332,0.954243,0.477121,0.09691,0.477121,2.68068,3.088136,1.945715,2.269513,2.518514,0.60206,0.30103,0.477121,0.69897,1.079181,0.60206,no
2.501059,1.041393,2.758912,2.540329,2.877947,1.510813,1.39794,0.845098,0.09691,0.778151,1.991226,3.088136,1.370328,1.491362,1.322219,1.079181,0.69897,1.672098,0.69897,1.643453,1.322219,yes
2.731589,1.431364,3.136403,2.628389,3.313023,1.788451,1.544068,1,0.100371,0.90309,1.891259,3.088136,1.306639,1.079181,0.30103,1.278754,0.477121,2.029384,1.041393,1.633468,1.838849,yes
2.260071,0.954243,2.550228,2.294466,2.677607,1.37328,1.342423,0.90309,0.123852,0.69897,2.00638,3.088136,1.386142,1.491362,1.322219,0.778151,0.477121,1.30103,0.845098,1.146128,1,yes
2.136721,0.90309,2.544068,2.371068,2.718502,1.393224,1.361728,0.477121,0.037426,0.778151,2.072397,3.088136,1.440122,1.491362,0.30103,1.079181,0.477121,1.591065,0.845098,1.491362,1.30103,no
2.857935,1.662758,3.215902,2.807535,3.382377,1.594061,1.80618,1.230449,0.09691,0.90309,1.992686,3.088136,1.420286,1.431364,0.30103,1.556303,0.30103,2.338456,1.113943,1.838849,2.136721,yes
2.488551,1,2.850646,2.037426,3.004751,1.279667,1.755875,1.176091,0.09691,1.041393,2.075547,3.088136,1.471732,1.462398,0.30103,1.69897,0.30103,1.662758,1.819544,1.361728,1.892095,yes
2.187521,0.477121,2.507856,2.161368,2.631444,1.936514,0.778151,0.30103,0.079181,0.477121,2.424555,3.088136,1.577492,2.158362,1.982271,1.414973,0.30103,1.591065,0.845098,1,1.544068,no
2.359835,1.30103,3.035029,2.608526,3.268344,1.654562,1.633468,1.041393,0.093422,0.90309,2.086609,3.088136,1.472903,1.431364,0.30103,1.230449,0.477121,1.60206,1,1.447158,1.342423,yes
2.029384,0.30103,2.187521,2.178977,2.193125,1.89487,0.477121,0.30103,0.176091,0.30103,1.255273,1.50515,0.875061,2.0086,1.982271,1.30103,0.30103,1.50515,0.778151,0.954243,1.361728,yes
2.30103,1.041393,2.716838,2.075547,2.897077,1.67532,1.255273,0.30103,0.025306,0.845098,2.052848,3.088136,1.389698,1.491362,0.30103,1.255273,0.60206,1.732394,1.041393,1.380211,1.568202,yes
2.350248,1,2.542825,2.448706,2.617,1.778151,0.90309,0,0,0.778151,2.286838,3.088136,1.472903,1.491362,0.60206,0.778151,0.60206,1.278754,0.60206,1.041393,1,yes
2.071882,0.477121,2.367356,2.290035,2.481443,1.710371,0.845098,0.30103,0.068186,0.60206,1.856306,2.40824,1.361728,1.770852,1.863323,1.431364,0.30103,1.041393,0.778151,1.322219,1.60206,yes
2.535294,1.20412,2.705864,2.603144,2.761928,1.987532,0.845098,0.30103,0.068186,0.60206,1.740363,2.361728,1.335859,1.60206,0.60206,1.763428,0.30103,1.518514,0.69897,1.041393,2.103804,yes
3.01536,1.079181,3.211921,3.078094,3.296007,2.256814,1.079181,0.60206,0.103804,0.477121,1.70757,2.361728,1.316599,1.20412,1.863323,2.252853,0.30103,1.579784,0.477121,1.113943,2.346353,no
1.740363,0.69897,1.968483,1.954243,1.991226,1.402261,0.69897,0.477121,0.176091,0.477121,1.34733,1.643453,1.146128,2.260071,1.982271,1,0.30103,0.69897,0.69897,0.778151,1.079181,no
1.763428,0.30103,1.968483,1.892095,1.991226,1.522835,0.60206,0.30103,0.123852,0.477121,1.39794,1.643453,1.146128,2.222716,1.863323,0.90309,0.477121,0.954243,0.60206,0.954243,1.146128,yes
2.689309,0.778151,2.83187,2.820201,2.840106,2.065094,0.845098,0.60206,0.176091,0.69897,1.308137,1.643453,1.085291,1.60206,0.60206,2.017033,0.30103,1.361728,0.477121,0.90309,2.303196,no
2.421604,0.954243,2.568202,2.462398,2.578639,1.884229,0.778151,0.30103,0.079181,0.69897,1.330414,1.643453,1.100371,1.60206,0.60206,1.69897,0.30103,1.361728,0.69897,0.845098,2.029384,yes
1.944483,0.778151,2.060698,2.060698,2.060698,2.060698,0.30103,0,0,0.30103,1.146128,1.146128,1.041393,2.262451,2.681241,0.30103,0.477121,1.230449,0,0.954243,1.322219,no
1.799341,0.60206,2.071882,2.071882,2.071882,2.071882,0.30103,0,0,0.30103,1.146128,1.146128,1.041393,2.262451,2.681241,0.477121,0.477121,1.113943,0.477121,0.477121,0.778151,no
1.380211,0.30103,1.792392,1.792392,1.792392,1.792392,0.30103,0,0,0.30103,1.146128,1.146128,1.041393,2.262451,2.681241,0.477121,0.30103,0.954243,0.60206,0.477121,0.60206,no
2.363612,1.146128,2.537819,2.537819,2.537819,2.537819,0.30103,0,0,0.30103,1.146128,1.146128,1.041393,2.262451,2.681241,1.079181,0.477121,1.633468,0.30103,1.079181,1.643453,no
2.227887,0.90309,2.454845,2.31597,2.525045,1.496376,1.079181,0.60206,0.103804,0.69897,2.369383,2.951823,1.731669,1.491362,1.322219,0.778151,0.60206,1.146128,0.778151,1.255273,0.90309,yes
1.982271,0.69897,2.212188,2.103804,2.271842,1.335859,1,0.60206,0.123852,0.69897,2.441962,2.951823,1.783761,1.491362,1.322219,0.30103,0.60206,0.954243,0.845098,0.954243,0.30103,yes
2.33646,1.079181,2.540329,2.369216,2.609594,1.541953,1.113943,0.60206,0.09691,0.778151,2.33662,2.951823,1.703979,1.491362,1.322219,0.845098,0.60206,1.146128,0.60206,1.255273,1.113943,yes
1.968483,0.778151,2.187521,2.089905,2.247973,1.361728,0.954243,0.30103,0.053078,0.69897,2.487322,2.951823,1.834103,2.257679,1.863323,0.30103,0.60206,0.954243,0.69897,0.954243,0.30103,yes
1.716003,0,2.120574,1.78533,2.252853,1.366423,0.954243,0.30103,0.053078,0.60206,2.565848,2.951823,1.870696,2.553883,1.176091,0.954243,0.30103,0.60206,1,0.69897,1.113943,no
1.531479,0.60206,1.78533,1.78533,1.78533,1.78533,0.30103,0,0,0.30103,1.462398,1.462398,1.146128,2.553883,2.681241,0.90309,0.30103,0,0.30103,0.477121,0.90309,no
2.037426,1,2.478566,1.838849,2.651278,1.328787,1.361728,0.90309,0.120574,0.954243,2.157819,2.951823,1.50147,1.491362,0.69897,1.079181,0.30103,1.431364,1.342423,1.113943,1.361728,yes
1.544068,0,1.851258,1.792392,1.892095,1.426023,0.60206,0,0,0.477121,2.86845,2.951823,2.170262,2.677607,2.518514,0.90309,0.30103,0,0.477121,0.477121,1,no
2.146128,0.778151,2.437751,2.225309,2.553883,1.524396,1.079181,0.477121,0.071882,0.60206,2.370235,2.951823,1.732394,2.222716,1.982271,1.079181,0.30103,1.431364,1.113943,1.041393,1.447158,no
1.176091,0,1.342423,1.113943,1.612784,1.156246,0.60206,0,0,0.477121,2.86845,2.951823,2.170262,2.677607,2.518514,0.477121,0.30103,0,0.954243,0.477121,0.477121,no
1.462398,0,1.826075,1.544068,1.919078,1.051153,0.954243,0,0,0.778151,2.559763,2.951823,1.858838,2.262451,1.176091,0.477121,0.30103,0.477121,0.69897,1.041393,0.477121,no
1.826075,0.30103,2.025306,2.012837,2.029384,1.732394,0.477121,0,0,0.477121,1.676694,1.812913,1.217484,2.257679,1.863323,0.778151,0.30103,1.113943,1,1.113943,1.041393,no
2.187521,0.954243,2.380211,2.130334,2.44248,1.606704,0.90309,0.477121,0.11059,0.69897,1.407731,1.812913,1.068557,1.491362,1.322219,1,0.30103,1.462398,1.20412,1.113943,1.447158,yes
2.064458,0.69897,2.298853,2.161368,2.369216,1.478999,0.954243,0.69897,0.176091,0.60206,1.311754,1.681241,1.134496,2.276462,1.863323,1.079181,0.30103,1.176091,0.477121,0.954243,1.50515,yes
2.71433,1.255273,2.996512,2.826075,3.098298,1.848866,1.278754,0.778151,0.10721,0.69897,1.588608,2.10721,1.2403,1.278754,0.30103,1.591065,0.69897,1.986772,1.70757,1.518514,2.021189,no
2.176091,0.477121,2.342423,2.342423,2.342423,2.342423,0.30103,0,0,0.30103,1.230449,1.230449,1.041393,2.274158,2.681241,0.954243,0.477121,1.518514,0.30103,1.431364,1.690196,yes
2.30963,0.69897,2.457882,2.457882,2.457882,2.457882,0.30103,0,0,0.30103,1.230449,1.230449,1.041393,2.274158,2.681241,1.176091,0.477121,1.653213,0.30103,1.491362,1.70757,no
1.462398,0.30103,1.770852,1.681241,1.812913,1.518514,0.477121,0,0,0.30103,1.759668,1.991226,1.40654,1.851258,2.681241,0.30103,0.30103,0.778151,0.477121,0.845098,0.778151,yes
0.30103,0,1.934498,1.934498,1.934498,1.934498,0.30103,0,0,0.30103,1.230449,1.230449,1.041393,2.274158,2.681241,0,0,0,0,0,0,no
2.32838,0.477121,2.418301,2.409933,2.424882,1.65485,0.845098,0.30103,0.068186,0.477121,1.772102,2.252853,1.180986,2.017033,1.982271,1,0.30103,1.653213,0.60206,1,1.681241,no
2.0086,0.477121,2.287802,2.217484,2.305351,1.537819,0.845098,0.30103,0.068186,0.60206,2.594393,2.951823,1.914713,2.424882,1.982271,0.954243,0.30103,1.39794,0.845098,0.954243,1.342423,no
1.80618,0,2.262451,2.262451,2.262451,1.963788,0.477121,0,0,0.30103,1.748188,1.986772,1.20412,2.424882,1.982271,0.778151,0.60206,0.778151,0.30103,0.845098,1.113943,no
2.678518,1.39794,3.20085,2.568202,3.414305,1.723456,1.70757,1.20412,0.113943,1.041393,1.985516,2.951823,1.430398,1.851258,0.30103,0,0.60206,0.30103,0.30103,0.845098,0,yes
1.361728,0,1.662758,1.662758,1.662758,1.371068,0.477121,0,0,0.477121,1.716003,1.986772,1.20412,2.424882,1.863323,0.69897,0.30103,0,0.69897,0,0.69897,no
1.568202,0,1.986772,1.414973,2.10721,0.906335,1.278754,0.845098,0.123852,0.69897,2.291768,2.951823,1.647774,1.78533,1.982271,0.778151,0.30103,0.30103,1.278754,0.845098,1,no
1.944483,0.30103,2.257679,1.556303,2.376577,1.005181,1.431364,0.954243,0.117271,0.845098,2.157427,2.951823,1.529559,2.369216,0.477121,0.954243,0.30103,1.079181,1.176091,1.146128,1.255273,no
2.209515,0.477121,2.856124,2.361728,3.083144,1.575996,1.531479,0.60206,0.037426,0.778151,2.165155,2.951823,1.56573,2.287802,1.863323,1.361728,0.30103,1.568202,1.748188,1,1.556303,yes
1.963788,0.778151,2.123852,2.093422,2.123852,1.653213,0.60206,0,0,0.60206,1.992686,2.10721,1.467312,2.298853,1.845098,0.90309,0.30103,1.39794,0.778151,0.954243,1.342423,no
2.193125,0.60206,2.517196,2.257679,2.645422,1.430398,1.255273,0.69897,0.093422,0.778151,2.337519,2.951823,1.678063,1.770852,1.863323,1.477121,0.30103,1.414973,0.477121,1.322219,1.633468,no
2.167317,0.845098,2.322219,2.311754,2.322219,2.023252,0.477121,0,0,0.477121,1.469822,1.556303,1.20412,1.78533,0.30103,1.20412,0.30103,1.361728,0.30103,1,1.447158,no
2.212188,0.954243,2.354108,2.354108,2.354108,2.354108,0.30103,0,0,0.30103,1.556303,1.556303,1.230449,1.78533,0.30103,0.845098,0.30103,1.623249,0.477121,1.255273,1.278754,yes
2.664642,1.255273,3,2.758912,3.137354,1.714162,1.447158,1.113943,0.158362,0.845098,2.105067,2.951823,1.502564,1.959041,1.041393,0.69897,0.477121,0.30103,0.90309,1.113943,0.69897,no
0.90309,0,1.623249,1.278754,1.69897,0.962369,0.845098,0.30103,0.068186,0.60206,2.692556,2.951823,1.991979,2.424882,1.982271,0.477121,0.30103,0,0.60206,0.477121,0.477121,no
2.30103,0.69897,2.652246,2.491362,2.804821,1.585122,1.255273,0.778151,0.11059,0.477121,1.668852,2.40824,1.210586,1.770852,1.982271,1.50515,0.30103,1.491362,0.845098,1.447158,1.653213,no
2.371068,0.845098,2.750508,2.745075,2.752816,2.277219,0.60206,0.30103,0.123852,0.30103,1.60206,1.986772,1.090963,2.424882,1.982271,1.20412,0.30103,1.079181,0.60206,0.778151,1.80618,no
1.934498,0.477121,2.214844,2.209515,2.214844,1.916454,0.477121,0.30103,0.176091,0.30103,1.518514,1.556303,1.217484,2.278754,2.681241,0.30103,0.30103,0.69897,0,1.20412,1.230449,no
2.184691,0.69897,2.4133,1.919078,2.503791,1.294687,1.255273,0.69897,0.093422,0.778151,2.111195,2.850646,1.557748,1.113943,0.845098,1.20412,0.30103,1.414973,0.60206,1.113943,1.491362,no
1.568202,0,1.799341,1.799341,1.799341,1.799341,0.30103,0,0,0.30103,1.556303,1.556303,1.278754,2.075547,2.681241,0.90309,0.477121,0,0,0.845098,0.90309,no
1.079181,0,1.60206,1.568202,1.653213,0.991226,0.778151,0.30103,0.079181,0.69897,2.666518,2.951823,1.976808,2.424882,1.982271,0.30103,0.30103,0.477121,0,0.30103,0.30103,no
0.30103,0,1.986772,1.986772,1.986772,1.986772,0.30103,0,0,0.30103,1.342423,1.342423,1.041393,2.318063,2.681241,0,0,0,0,0,0,no
1.924279,0.30103,2.206826,2.082785,2.232996,1.467312,0.845098,0,0,0.30103,1.769599,2.40824,1.30103,1.770852,2.681241,0.954243,0.477121,1.146128,0,1.176091,1.146128,yes
1.690196,0.30103,2.08636,2.079181,2.093422,1.623249,0.60206,0.30103,0.123852,0.30103,1.271144,1.342423,0.969882,2.240549,2.681241,0.954243,0.477121,0.778151,0,1,1.041393,no
1.462398,0,1.939519,1.934498,1.944483,1.64836,0.477121,0,0,0.30103,1.217484,1.342423,0.875061,1.991226,2.681241,0.69897,0.477121,0,0.30103,0.90309,0.69897,no
1.633468,0,2.025306,2.021189,2.029384,1.732394,0.477121,0,0,0.30103,1.217484,1.342423,0.875061,1.991226,2.681241,0.60206,0.477121,0,0.30103,0.90309,0.60206,no
1.662758,0.477121,2.068186,2.064458,2.120574,1.822822,0.477121,0.30103,0.176091,0.30103,1.342423,1.342423,1,2.240549,2.681241,0.69897,0.477121,0.69897,0.477121,1.146128,0.845098,no
2.436163,1.361728,2.587711,2.587711,2.587711,2.587711,0.30103,0,0,0.30103,1.342423,1.342423,1.041393,2.318063,2.681241,0.90309,1.176091,1.041393,0.60206,1.447158,1.477121,no
1.531479,0,1.908485,1.897627,1.919078,1.452247,0.60206,0,0,0.477121,1.782974,2.10721,1.355452,2.298853,1.845098,0.69897,0.477121,0.778151,0.477121,1.041393,0.778151,no
2.176091,0.69897,2.31597,2.31597,2.31597,2.31597,0.30103,0,0,0.30103,1.342423,1.342423,1.041393,2.318063,2.681241,1.041393,0.30103,1.380211,0.60206,1,1.50515,no
1.982271,0.30103,2.187521,2.187521,2.198657,1.900367,0.477121,0.30103,0.176091,0.30103,1.342423,1.342423,1,2.240549,2.681241,0.845098,0.477121,1.531479,0.477121,1.176091,1.39794,no
2.753583,1.041393,3.103119,2.58995,3.249198,1.689753,1.579784,1.079181,0.113943,0.845098,2.011105,2.951823,1.461198,1.113943,0.30103,0,0.60206,0.30103,0.30103,0.778151,0,yes
2.127105,0.477121,2.426511,2.409933,2.434569,1.66436,0.845098,0.30103,0.068186,0.60206,2.480481,2.951823,1.808414,2.424882,1.982271,1.20412,0.30103,1.079181,1.041393,0.69897,1.591065,no
2.152288,0.69897,2.40654,2.396199,2.416641,1.646698,0.845098,0.30103,0.068186,0.60206,2.480481,2.951823,1.808414,2.424882,1.982271,1.30103,0.30103,1.278754,1.146128,0.778151,1.518514,no
1.80618,0.778151,2.082785,2.071882,2.093422,1.40824,0.778151,0.30103,0.079181,0.60206,2.547282,2.951823,1.870404,2.424882,1.982271,0.90309,0.30103,1.079181,0.845098,0.477121,1.255273,no
1.832509,0,2.060698,2.037426,2.064458,1.304706,0.845098,0.30103,0.068186,0.60206,2.59641,2.951823,1.914713,2.424882,1.982271,1.079181,0.60206,0.30103,0.30103,0.30103,1.380211,no
1.968483,0,2.167317,2.033424,2.173186,1.409426,0.845098,0.30103,0.068186,0.60206,2.59641,2.951823,1.914713,2.424882,1.982271,1.113943,0.60206,0.845098,1.079181,0.477121,1.447158,no
2.378398,1.322219,2.727541,2.691081,2.748188,2.052309,0.778151,0.30103,0.079181,0.60206,2.521138,2.951823,1.842609,2.424882,1.982271,1.50515,0.60206,1.39794,0.954243,0.778151,1.94939,no
1.690196,0,1.968483,1.939519,1.973128,1.217484,0.845098,0.30103,0.068186,0.60206,2.59641,2.951823,1.914713,2.424882,1.982271,1.041393,0.69897,0.954243,1.146128,0.60206,1.079181,no
3.034227,1.556303,3.44248,3.254548,3.572174,2.273349,1.322219,0.845098,0.113943,0.69897,2.044148,2.951823,1.4843,1.851258,1.845098,0.30103,0.60206,0.477121,0.477121,1.041393,0.69897,yes
1,0,1.653213,1.643453,1.662758,1.088136,0.69897,0.30103,0.09691,0.60206,2.611989,2.951823,1.92557,2.424882,1.982271,0.477121,0.477121,0,0.477121,0.30103,0.477121,no
1,0,1.662758,1.653213,1.672098,1.09691,0.69897,0.30103,0.09691,0.60206,2.611989,2.951823,1.92557,2.424882,1.982271,0.477121,0.477121,0,0.477121,0.30103,0.477121,no
2.60206,0.954243,3.268344,2.522444,3.506911,1.751125,1.770852,1.342423,0.133539,0.954243,1.922518,2.951823,1.351216,1.959041,0.477121,0,0.60206,0.30103,0.30103,0.69897,0,no
2.363612,0.954243,2.619093,2.257679,2.735599,1.493737,1.278754,0.90309,0.143015,0.69897,2.206664,2.951823,1.592288,1.80618,1.863323,0.69897,0.30103,0.90309,0.778151,0.778151,0.845098,no
2.307496,0.954243,2.471292,2.429752,2.503791,1.810233,0.778151,0.477121,0.146128,0.69897,1.61066,1.991226,1.365488,1.851258,1.342423,0.90309,0.477121,1.69897,0.30103,1.579784,1.60206,no
2.350248,1.041393,2.546543,2.519828,2.564666,1.870404,0.778151,0.477121,0.146128,0.69897,1.61066,1.991226,1.365488,1.851258,1.342423,1.113943,0.477121,1.653213,0.477121,1.50515,1.672098,no
1.230449,0,1.146128,1.146128,1.342423,1.060698,0.477121,0,0,0.30103,1.748188,1.986772,1.20412,2.424882,1.982271,0.60206,0.477121,0,0.477121,0.60206,0.60206,no
1.322219,0,1.812913,1.447158,1.924279,0.931966,1.079181,0.477121,0.071882,0.69897,2.467134,2.951823,1.790496,2.424882,1.041393,0.69897,0.30103,0,0,0.954243,0.69897,no
1.556303,0,1.869232,1.851258,1.869232,1.574031,0.477121,0,0,0.477121,1.511883,1.681241,1.39794,2.274158,1.982271,0,0.30103,0.778151,0.30103,0.477121,0,yes
1.662758,0,3.27277,2.432969,3.564548,1.765743,1.812913,1.361728,0.127105,0.954243,1.895201,2.951823,1.367356,2.075547,0.954243,0.60206,0.477121,1.146128,0.477121,1.079181,1,yes
1.792392,0.477121,2.103804,1.986772,2.190332,1.502427,0.778151,0,0,0.477121,1.956168,2.10721,1.513218,2.424882,1.982271,0.778151,0.30103,1.322219,1.255273,1.146128,1.041393,no
2.252853,0.477121,2.506505,1.819544,2.599883,1.340246,1.30103,0.60206,0.064458,0.60206,2.283889,2.951823,1.665206,1.792392,1.982271,1.041393,0.477121,1.531479,1.278754,1.20412,1.732394,no
1.963788,0.477121,2.40654,2.017033,2.579784,1.367169,1.255273,0.778151,0.11059,0.60206,2.337759,2.951823,1.699491,1.991226,1.982271,0.954243,0.30103,1.255273,1.041393,1.113943,1.342423,no
2.290035,0.30103,2.382017,2.290035,2.40824,1.283527,1.176091,0.60206,0.082785,0.60206,1.497344,1.986772,1.089552,1.959041,1.863323,0.69897,0.30103,1.672098,1.041393,1.146128,1.799341,yes
2.155336,0,2.294466,2.294466,2.294466,2.294466,0.30103,0,0,0.30103,1.041393,1.041393,0.60206,1.991226,2.681241,0.778151,0.30103,1.041393,0.30103,0.90309,1.146128,no
2.230449,0.477121,2.326336,2.326336,2.326336,2.326336,0.30103,0,0,0.30103,1.041393,1.041393,0.60206,1.991226,2.681241,0.60206,0.30103,0.845098,0.30103,1.041393,0.778151,no
2.149219,1.041393,2.274158,2.274158,2.274158,2.274158,0.30103,0,0,0.30103,1.041393,1.041393,0.60206,1.991226,2.681241,1.041393,0.30103,1.361728,0.30103,1.30103,1.380211,no
2.060698,0.845098,2.217484,2.1959,2.227887,1.633468,0.69897,0,0,0.30103,1.267172,1.361728,1.051153,1.78533,2.681241,0.90309,0.30103,1.462398,0.30103,1.113943,1.079181,no
2.535294,1.623249,2.703291,2.703291,2.703291,2.703291,0.30103,0,0,0.30103,1.041393,1.041393,0.60206,1.991226,2.681241,1.278754,0.30103,1.826075,0.69897,1.431364,1.690196,no
1.944483,0.30103,2.181844,2.181844,2.181844,2.181844,0.30103,0,0,0.30103,1.041393,1.041393,0.60206,1.991226,2.681241,0.90309,0.30103,1.39794,0.60206,1.230449,1.230449,no
2.041393,0,2.359835,2.344392,2.367356,1.770852,0.69897,0,0,0.30103,1.267172,1.361728,1.051153,1.78533,2.681241,1,0.30103,0.954243,0.477121,1.079181,1.146128,no
2.209515,0.30103,2.448706,2.287802,2.555094,1.424392,1.176091,0.69897,0.11059,0.69897,2.212374,2.850646,1.633468,2.278754,1.863323,1,0.477121,1.544068,0.30103,1.30103,1.681241,no
2.161368,0.477121,2.471292,2.173186,2.599883,1.386499,1.255273,0.69897,0.093422,0.778151,2.154272,2.850646,1.591732,2.307496,1.845098,1,0.477121,1.544068,0.30103,1.30103,1.477121,no
2.120574,0,2.401401,1.778151,2.507856,1.211921,1.342423,0.69897,0.075547,0.778151,2.259044,2.951823,1.627673,1.113943,0.845098,0.954243,0.30103,1.447158,1.146128,1.079181,1.491362,no
1.863323,0.477121,2.184691,1.643453,2.285557,1.230449,1.113943,0.69897,0.123852,0.60206,2.415257,2.951823,1.761552,1.78533,1.982271,1.079181,0.30103,1.041393,0.60206,0.778151,1.176091,yes
2.502427,1.255273,2.737193,2.584331,2.848189,1.812913,1.079181,0.60206,0.103804,0.60206,1.80373,2.10721,1.376942,1.959041,1.845098,1.322219,0.477121,1.716003,0.30103,1.380211,1.838849,no
1.531479,0,1.799341,1.799341,1.799341,1.50515,0.477121,0,0,0.477121,1.954243,1.986772,1.462398,2.424882,1.982271,0.954243,0.30103,0.30103,0.60206,0.30103,0.954243,no
2.184691,0.90309,2.352183,2.227887,2.38739,1.695482,0.778151,0,0,0.477121,1.80618,1.986772,1.350248,2.424882,1.982271,1.079181,0.60206,1.431364,0.69897,1,1.342423,no
1.633468,0,1.880814,1.880814,1.880814,1.585461,0.477121,0,0,0.477121,1.954243,1.986772,1.462398,2.424882,1.982271,1.079181,0.30103,0,0,0,1.079181,no
1.812913,0.778151,2.012837,1.939519,2.017033,1.548144,0.60206,0,0,0.477121,1.886491,1.986772,1.386142,2.424882,1.982271,1.079181,0.30103,0.845098,0.69897,0.30103,1.30103,no
2.190332,0.477121,2.352183,2.298853,2.383815,1.614581,0.845098,0,0,0.477121,1.899437,2.342423,1.364926,2.217484,1.982271,1,0.30103,1.579784,0.477121,0.90309,1.633468,yes
2.243038,0.60206,2.534026,2.404834,2.652246,1.755875,0.954243,0.477121,0.09691,0.477121,1.845098,2.10721,1.410777,2.369216,1.982271,1.431364,0.30103,1.462398,1,1.255273,1.623249,no
1.579784,0.477121,1.90309,1.880814,1.94939,1.481872,0.60206,0,0,0.477121,1.886491,1.986772,1.386142,2.424882,1.982271,0.477121,0.477121,0.954243,0.477121,0.778151,0.60206,no
3.075182,1.462398,3.275772,3.258398,3.291147,2.514109,0.845098,0.477121,0.123852,0.477121,1.641771,1.986772,1.20871,1.959041,1.982271,0.30103,0.30103,0.477121,0.30103,1.041393,0.69897,no
2.390935,1,2.62634,2.409933,2.736397,1.702861,1.079181,0.30103,0.037426,0.477121,1.834802,2.10721,1.402605,1.851258,1.982271,1.255273,0.477121,1.748188,0.30103,1.39794,1.690196,no
2.161368,0.90309,2.330414,2.173186,2.371068,1.536937,0.90309,0,0,0.477121,1.687618,1.986772,1.268812,2.217484,1.982271,0.954243,0.477121,1.690196,0.60206,1,1.462398,no
2.62941,1.20412,2.71265,2.710963,2.71433,2.238874,0.60206,0,0,0.477121,1.73504,1.986772,1.195069,2.424882,1.982271,1.531479,0.477121,1.653213,0.69897,0.90309,2.060698,no
2.021189,0.30103,2.230449,2.133539,2.271842,1.384712,0.954243,0,0,0.477121,1.84042,2.10721,1.404492,2.075547,1.982271,0.845098,0.477121,1.322219,0.60206,1.230449,1.176091,no
2.232996,0.477121,2.619093,2.130334,2.776701,1.306639,1.50515,1.079181,0.130334,0.778151,2.148819,2.951823,1.518119,1.770852,1.863323,1.556303,0.30103,1.431364,1.518514,1.361728,1.653213,no
1.740363,0.477121,1.913814,1.913814,1.913814,1.913814,0.30103,0,0,0.30103,1.113943,1.113943,0.90309,1.491362,1.322219,0.60206,0.477121,1.113943,0.60206,0.845098,1.079181,no
2.064458,0.477121,2.232996,2.232996,2.232996,2.232996,0.30103,0,0,0.30103,1.113943,1.113943,0.90309,1.491362,1.322219,0.845098,0.477121,1.342423,0.778151,0.90309,1.380211,no
1.462398,0,0.30103,0.30103,0.69897,0.69897,0.30103,0,0,0.30103,1.113943,1.113943,0.90309,1.491362,1.322219,0.477121,0.30103,0.69897,0,0.69897,0.69897,no
2.222716,0.954243,2.418301,2.38739,2.444045,1.673666,0.845098,0,0,0.477121,2.782114,3.088136,2.046612,2.269513,2.518514,0.90309,0.477121,1.643453,0.60206,1.39794,1.462398,no
1.414973,0,1.491362,1.342423,1.662758,1.088136,0.69897,0,0,0.477121,2.934625,3.088136,2.168055,2.269513,2.518514,0.477121,0.30103,0.477121,0,0.90309,0.477121,no
1.556303,0.30103,1.869232,1.740363,1.892095,1.306425,0.69897,0,0,0.477121,2.934625,3.088136,2.168055,2.269513,2.518514,0.60206,0.30103,1.079181,0.30103,0.30103,0.845098,no
2.713491,1.544068,2.906874,2.801404,2.981819,1.611936,1.39794,0.845098,0.09691,0.90309,2.22487,3.088136,1.579326,1.431364,0.60206,1.113943,0.60206,1.763428,0.69897,1.612784,1.612784,no
1.755875,0.90309,1.959041,1.959041,1.959041,1.959041,0.30103,0,0,0.30103,1.113943,1.113943,0.90309,1.491362,1.322219,0.60206,0.30103,1,0.30103,0.60206,1,no
1.968483,0.845098,2.173186,2.056905,2.232996,1.544068,0.778151,0,0,0.477121,2.853941,3.088136,2.100371,2.269513,2.518514,0.778151,0.30103,1.462398,0.30103,1.146128,1.342423,no
1.50515,0,1.80618,1.653213,1.851258,1.267172,0.69897,0,0,0.477121,2.934625,3.088136,2.168055,2.269513,2.518514,0.477121,0.30103,0.845098,0,0.90309,1,no
1.643453,0.30103,1.770852,1.544068,1.857332,1.181844,0.778151,0,0,0.477121,2.839101,3.088136,2.077731,1.431364,2.518514,1.041393,0.30103,0.477121,1.041393,0.30103,1.041393,no
1.633468,0.60206,1.875061,1.869232,1.880814,1.585461,0.477121,0.30103,0.176091,0.477121,1.113943,1.255273,0.954243,1.60206,0.60206,0.778151,0.477121,1.113943,0.30103,0.954243,0.845098,no
2.804821,1.662758,2.992554,2.814913,3.063333,1.709779,1.380211,0.845098,0.100371,0.90309,1.924072,3.088136,1.33726,1.431364,0.30103,1.230449,0.60206,1.869232,0.90309,1.579784,1.716003,yes
